 C                                      
1.0
       88.8443984985         0.0000000000         0.0000000000
      -44.4221992493        76.9415060837         0.0000000000
        0.0000000000         0.0000000000         6.4260106087
    C
 5200
Cartesian
     0.000000000         0.000000000         1.606502652
    -4.442219991         7.694150723         1.606502652
    -8.884439982        15.388301446         1.606502652
   -13.326660304        23.082452742         1.606502652
   -17.768879964        30.776602892         1.606502652
   -22.211099625        38.470753042         1.606502652
   -26.653320609        46.164905485         1.606502652
   -31.095538945        53.859053341         1.606502652
   -35.537759929        61.553205784         1.606502652
   -39.979978265        69.247353641         1.606502652
     8.884439982         0.000000000         1.606502652
     4.442219991         7.694150723         1.606502652
     0.000000000        15.388301446         1.606502652
    -4.442220322        23.082452742         1.606502652
    -8.884439982        30.776602892         1.606502652
   -13.326659642        38.470753042         1.606502652
   -17.768880626        46.164905485         1.606502652
   -22.211098963        53.859053341         1.606502652
   -26.653319947        61.553205784         1.606502652
   -31.095538283        69.247353641         1.606502652
    17.768879964         0.000000000         1.606502652
    13.326659973         7.694150723         1.606502652
     8.884439982        15.388301446         1.606502652
     4.442219660        23.082452742         1.606502652
     0.000000000        30.776602892         1.606502652
    -4.442219660        38.470753042         1.606502652
    -8.884440644        46.164905485         1.606502652
   -13.326658980        53.859053341         1.606502652
   -17.768879964        61.553205784         1.606502652
   -22.211098301        69.247353641         1.606502652
    26.653320609         0.000000000         1.606502652
    22.211100618         7.694150723         1.606502652
    17.768880626        15.388301446         1.606502652
    13.326660304        23.082452742         1.606502652
     8.884440644        30.776602892         1.606502652
     4.442220984        38.470753042         1.606502652
     0.000000000        46.164905485         1.606502652
    -4.442218336        53.859053341         1.606502652
    -8.884439320        61.553205784         1.606502652
   -13.326657657        69.247353641         1.606502652
    35.537759929         0.000000000         1.606502652
    31.095539938         7.694150723         1.606502652
    26.653319947        15.388301446         1.606502652
    22.211099625        23.082452742         1.606502652
    17.768879964        30.776602892         1.606502652
    13.326660304        38.470753042         1.606502652
     8.884439320        46.164905485         1.606502652
     4.442220984        53.859053341         1.606502652
     0.000000000        61.553205784         1.606502652
    -4.442218336        69.247353641         1.606502652
    44.422199249         0.000000000         1.606502652
    39.979979258         7.694150723         1.606502652
    35.537759267        15.388301446         1.606502652
    31.095538945        23.082452742         1.606502652
    26.653319285        30.776602892         1.606502652
    22.211099625        38.470753042         1.606502652
    17.768878641        46.164905485         1.606502652
    13.326660304        53.859053341         1.606502652
     8.884439320        61.553205784         1.606502652
     4.442220984        69.247353641         1.606502652
    53.306641217         0.000000000         1.606502652
    48.864421226         7.694150723         1.606502652
    44.422201235        15.388301446         1.606502652
    39.979980913        23.082452742         1.606502652
    35.537761253        30.776602892         1.606502652
    31.095541593        38.470753042         1.606502652
    26.653320609        46.164905485         1.606502652
    22.211102272        53.859053341         1.606502652
    17.768881288        61.553205784         1.606502652
    13.326662952        69.247353641         1.606502652
    62.191077890         0.000000000         1.606502652
    57.748857899         7.694150723         1.606502652
    53.306637908        15.388301446         1.606502652
    48.864417586        23.082452742         1.606502652
    44.422197925        30.776602892         1.606502652
    39.979978265        38.470753042         1.606502652
    35.537757281        46.164905485         1.606502652
    31.095538945        53.859053341         1.606502652
    26.653317961        61.553205784         1.606502652
    22.211099625        69.247353641         1.606502652
    71.075519858         0.000000000         1.606502652
    66.633299867         7.694150723         1.606502652
    62.191079876        15.388301446         1.606502652
    57.748859554        23.082452742         1.606502652
    53.306639893        30.776602892         1.606502652
    48.864420233        38.470753042         1.606502652
    44.422199249        46.164905485         1.606502652
    39.979980913        53.859053341         1.606502652
    35.537759929        61.553205784         1.606502652
    31.095541593        69.247353641         1.606502652
    79.959956530         0.000000000         1.606502652
    75.517736539         7.694150723         1.606502652
    71.075516548        15.388301446         1.606502652
    66.633296226        23.082452742         1.606502652
    62.191076566        30.776602892         1.606502652
    57.748856906        38.470753042         1.606502652
    53.306635922        46.164905485         1.606502652
    48.864417586        53.859053341         1.606502652
    44.422196601        61.553205784         1.606502652
    39.979978265        69.247353641         1.606502652
    -2.733673885         5.918577612         1.606502652
    -7.175893876        13.612728335         1.606502652
   -11.618114198        21.306879631         1.606502652
   -16.060333859        29.001029781         1.606502652
   -20.502553519        36.695179930         1.606502652
   -24.944773179        44.389330080         1.606502652
   -29.386994163        52.083482523         1.606502652
   -33.829212499        59.777630380         1.606502652
   -38.271433483        67.471782822         1.606502652
   -42.713654467        75.165935265         1.606502652
     6.150766014         5.918577612         1.606502652
     1.708546023        13.612728335         1.606502652
    -2.733674299        21.306879631         1.606502652
    -7.175893959        29.001029781         1.606502652
   -11.618113619        36.695179930         1.606502652
   -16.060333279        44.389330080         1.606502652
   -20.502554263        52.083482523         1.606502652
   -24.944772600        59.777630380         1.606502652
   -29.386993584        67.471782822         1.606502652
   -33.829214568        75.165935265         1.606502652
    15.035205996         5.918577612         1.606502652
    10.592986005        13.612728335         1.606502652
     6.150765683        21.306879631         1.606502652
     1.708546023        29.001029781         1.606502652
    -2.733673637        36.695179930         1.606502652
    -7.175893297        44.389330080         1.606502652
   -11.618114281        52.083482523         1.606502652
   -16.060332617        59.777630380         1.606502652
   -20.502553601        67.471782822         1.606502652
   -24.944774586        75.165935265         1.606502652
    23.919646641         5.918577612         1.606502652
    19.477426650        13.612728335         1.606502652
    15.035206327        21.306879631         1.606502652
    10.592986667        29.001029781         1.606502652
     6.150767007        36.695179930         1.606502652
     1.708547347        44.389330080         1.606502652
    -2.733673637        52.083482523         1.606502652
    -7.175891973        59.777630380         1.606502652
   -11.618112957        67.471782822         1.606502652
   -16.060333941        75.165935265         1.606502652
    32.804085961         5.918577612         1.606502652
    28.361865970        13.612728335         1.606502652
    23.919645648        21.306879631         1.606502652
    19.477425988        29.001029781         1.606502652
    15.035206327        36.695179930         1.606502652
    10.592986667        44.389330080         1.606502652
     6.150765683        52.083482523         1.606502652
     1.708547347        59.777630380         1.606502652
    -2.733673637        67.471782822         1.606502652
    -7.175894621        75.165935265         1.606502652
    41.688527929         5.918577612         1.606502652
    37.246307938        13.612728335         1.606502652
    32.804087616        21.306879631         1.606502652
    28.361867956        29.001029781         1.606502652
    23.919648296        36.695179930         1.606502652
    19.477428635        44.389330080         1.606502652
    15.035207651        52.083482523         1.606502652
    10.592989315        59.777630380         1.606502652
     6.150768331        67.471782822         1.606502652
     1.708547347        75.165935265         1.606502652
    50.572964602         5.918577612         1.606502652
    46.130744610        13.612728335         1.606502652
    41.688524288        21.306879631         1.606502652
    37.246304628        29.001029781         1.606502652
    32.804084968        36.695179930         1.606502652
    28.361865308        44.389330080         1.606502652
    23.919644324        52.083482523         1.606502652
    19.477425988        59.777630380         1.606502652
    15.035205004        67.471782822         1.606502652
    10.592984020        75.165935265         1.606502652
    59.457406570         5.918577612         1.606502652
    55.015186579        13.612728335         1.606502652
    50.572966256        21.306879631         1.606502652
    46.130746596        29.001029781         1.606502652
    41.688526936        36.695179930         1.606502652
    37.246307276        44.389330080         1.606502652
    32.804086292        52.083482523         1.606502652
    28.361867956        59.777630380         1.606502652
    23.919646972        67.471782822         1.606502652
    19.477425988        75.165935265         1.606502652
    68.341843242         5.918577612         1.606502652
    63.899623251        13.612728335         1.606502652
    59.457402929        21.306879631         1.606502652
    55.015183269        29.001029781         1.606502652
    50.572963609        36.695179930         1.606502652
    46.130743949        44.389330080         1.606502652
    41.688522964        52.083482523         1.606502652
    37.246304628        59.777630380         1.606502652
    32.804083644        67.471782822         1.606502652
    28.361862660        75.165935265         1.606502652
    77.226285210         5.918577612         1.606502652
    72.784065219        13.612728335         1.606502652
    68.341844897        21.306879631         1.606502652
    63.899625237        29.001029781         1.606502652
    59.457405577        36.695179930         1.606502652
    55.015185917        44.389330080         1.606502652
    50.572964933        52.083482523         1.606502652
    46.130746596        59.777630380         1.606502652
    41.688525612        67.471782822         1.606502652
    37.246304628        75.165935265         1.606502652
     7.175893876         1.775573255         1.606502652
     2.733673968         9.469723835         1.606502652
    -1.708546023        17.163874558         1.606502652
    -6.150766345        24.858025854         1.606502652
   -10.592986005        32.552176004         1.606502652
   -15.035206989        40.246328446         1.606502652
   -19.477425326        47.940476303         1.606502652
   -23.919646310        55.634628746         1.606502652
   -28.361864646        63.328776603         1.606502652
   -32.804085630        71.022929045         1.606502652
    16.060333859         1.775573255         1.606502652
    11.618113950         9.469723835         1.606502652
     7.175893959        17.163874558         1.606502652
     2.733673637        24.858025854         1.606502652
    -1.708546023        32.552176004         1.606502652
    -6.150767007        40.246328446         1.606502652
   -10.592985343        47.940476303         1.606502652
   -15.035206327        55.634628746         1.606502652
   -19.477424664        63.328776603         1.606502652
   -23.919645648        71.022929045         1.606502652
    24.944774503         1.775573255         1.606502652
    20.502554594         9.469723835         1.606502652
    16.060334603        17.163874558         1.606502652
    11.618114281        24.858025854         1.606502652
     7.175894621        32.552176004         1.606502652
     2.733673637        40.246328446         1.606502652
    -1.708544699        47.940476303         1.606502652
    -6.150765683        55.634628746         1.606502652
   -10.592984020        63.328776603         1.606502652
   -15.035205004        71.022929045         1.606502652
    33.829213823         1.775573255         1.606502652
    29.386993915         9.469723835         1.606502652
    24.944773924        17.163874558         1.606502652
    20.502553601        24.858025854         1.606502652
    16.060333941        32.552176004         1.606502652
    11.618112957        40.246328446         1.606502652
     7.175894621        47.940476303         1.606502652
     2.733673637        55.634628746         1.606502652
    -1.708544699        63.328776603         1.606502652
    -6.150765683        71.022929045         1.606502652
    42.713653143         1.775573255         1.606502652
    38.271433235         9.469723835         1.606502652
    33.829213244        17.163874558         1.606502652
    29.386992922        24.858025854         1.606502652
    24.944773262        32.552176004         1.606502652
    20.502552278        40.246328446         1.606502652
    16.060333941        47.940476303         1.606502652
    11.618112957        55.634628746         1.606502652
     7.175894621        63.328776603         1.606502652
     2.733673637        71.022929045         1.606502652
    51.598092464         1.775573255         1.606502652
    47.155872555         9.469723835         1.606502652
    42.713652564        17.163874558         1.606502652
    38.271432242        24.858025854         1.606502652
    33.829212582        32.552176004         1.606502652
    29.386991598        40.246328446         1.606502652
    24.944773262        47.940476303         1.606502652
    20.502552278        55.634628746         1.606502652
    16.060333941        63.328776603         1.606502652
    11.618112957        71.022929045         1.606502652
    60.482534432         1.775573255         1.606502652
    56.040314523         9.469723835         1.606502652
    51.598094532        17.163874558         1.606502652
    47.155874210        24.858025854         1.606502652
    42.713654550        32.552176004         1.606502652
    38.271433566        40.246328446         1.606502652
    33.829215230        47.940476303         1.606502652
    29.386994246        55.634628746         1.606502652
    24.944775909        63.328776603         1.606502652
    20.502554925        71.022929045         1.606502652
    69.366971104         1.775573255         1.606502652
    64.924751196         9.469723835         1.606502652
    60.482531205        17.163874558         1.606502652
    56.040310883        24.858025854         1.606502652
    51.598091223        32.552176004         1.606502652
    47.155870239        40.246328446         1.606502652
    42.713651902        47.940476303         1.606502652
    38.271430918        55.634628746         1.606502652
    33.829212582        63.328776603         1.606502652
    29.386991598        71.022929045         1.606502652
    78.251413072         1.775573255         1.606502652
    73.809193164         9.469723835         1.606502652
    69.366973173        17.163874558         1.606502652
    64.924752851        24.858025854         1.606502652
    60.482533191        32.552176004         1.606502652
    56.040312207        40.246328446         1.606502652
    51.598093870        47.940476303         1.606502652
    47.155872886        55.634628746         1.606502652
    42.713654550        63.328776603         1.606502652
    38.271433566        71.022929045         1.606502652
    87.135855040         1.775573255         1.606502652
    82.693635132         9.469723835         1.606502652
    78.251415141        17.163874558         1.606502652
    73.809194819        24.858025854         1.606502652
    69.366975159        32.552176004         1.606502652
    64.924754175        40.246328446         1.606502652
    60.482535838        47.940476303         1.606502652
    56.040314854        55.634628746         1.606502652
    51.598096518        63.328776603         1.606502652
    47.155875534        71.022929045         1.606502652
     5.467347770         3.551146510         1.606502652
     1.025127614        11.245297519         1.606502652
    -3.417092046        18.939447669         1.606502652
    -7.859312368        26.633598965         1.606502652
   -12.301532029        34.327749115         1.606502652
   -16.743751689        42.021899265         1.606502652
   -21.185972673        49.716051708         1.606502652
   -25.628191009        57.410199564         1.606502652
   -30.070411993        65.104352007         1.606502652
   -34.512630329        72.798499864         1.606502652
    14.351787753         3.551146510         1.606502652
     9.909567596        11.245297519         1.606502652
     5.467347936        18.939447669         1.606502652
     1.025127614        26.633598965         1.606502652
    -3.417092046        34.327749115         1.606502652
    -7.859311706        42.021899265         1.606502652
   -12.301532690        49.716051708         1.606502652
   -16.743751027        57.410199564         1.606502652
   -21.185972011        65.104352007         1.606502652
   -25.628190347        72.798499864         1.606502652
    23.236228397         3.551146510         1.606502652
    18.794008240        11.245297519         1.606502652
    14.351788580        18.939447669         1.606502652
     9.909568258        26.633598965         1.606502652
     5.467348598        34.327749115         1.606502652
     1.025128938        42.021899265         1.606502652
    -3.417092046        49.716051708         1.606502652
    -7.859310383        57.410199564         1.606502652
   -12.301531367        65.104352007         1.606502652
   -16.743749703        72.798499864         1.606502652
    32.120667717         3.551146510         1.606502652
    27.678447561        11.245297519         1.606502652
    23.236227900        18.939447669         1.606502652
    18.794007578        26.633598965         1.606502652
    14.351787918        34.327749115         1.606502652
     9.909568258        42.021899265         1.606502652
     5.467347274        49.716051708         1.606502652
     1.025128938        57.410199564         1.606502652
    -3.417092046        65.104352007         1.606502652
    -7.859310383        72.798499864         1.606502652
    41.005107038         3.551146510         1.606502652
    36.562886881        11.245297519         1.606502652
    32.120667221        18.939447669         1.606502652
    27.678446899        26.633598965         1.606502652
    23.236227239        34.327749115         1.606502652
    18.794007578        42.021899265         1.606502652
    14.351786594        49.716051708         1.606502652
     9.909568258        57.410199564         1.606502652
     5.467347274        65.104352007         1.606502652
     1.025128938        72.798499864         1.606502652
    49.889549006         3.551146510         1.606502652
    45.447328849        11.245297519         1.606502652
    41.005109189        18.939447669         1.606502652
    36.562888867        26.633598965         1.606502652
    32.120669207        34.327749115         1.606502652
    27.678449546        42.021899265         1.606502652
    23.236228562        49.716051708         1.606502652
    18.794010226        57.410199564         1.606502652
    14.351789242        65.104352007         1.606502652
     9.909570906        72.798499864         1.606502652
    58.773985678         3.551146510         1.606502652
    54.331765522        11.245297519         1.606502652
    49.889545861        18.939447669         1.606502652
    45.447325539        26.633598965         1.606502652
    41.005105879        34.327749115         1.606502652
    36.562886219        42.021899265         1.606502652
    32.120665235        49.716051708         1.606502652
    27.678446899        57.410199564         1.606502652
    23.236225915        65.104352007         1.606502652
    18.794007578        72.798499864         1.606502652
    67.658427646         3.551146510         1.606502652
    63.216207490        11.245297519         1.606502652
    58.773987829        18.939447669         1.606502652
    54.331767507        26.633598965         1.606502652
    49.889547847        34.327749115         1.606502652
    45.447328187        42.021899265         1.606502652
    41.005107203        49.716051708         1.606502652
    36.562888867        57.410199564         1.606502652
    32.120667883        65.104352007         1.606502652
    27.678449546        72.798499864         1.606502652
    76.542864319         3.551146510         1.606502652
    72.100644162        11.245297519         1.606502652
    67.658424502        18.939447669         1.606502652
    63.216204180        26.633598965         1.606502652
    58.773984520        34.327749115         1.606502652
    54.331764860        42.021899265         1.606502652
    49.889543876        49.716051708         1.606502652
    45.447325539        57.410199564         1.606502652
    41.005104555        65.104352007         1.606502652
    36.562886219        72.798499864         1.606502652
    85.427306287         3.551146510         1.606502652
    80.985086130        11.245297519         1.606502652
    76.542866470        18.939447669         1.606502652
    72.100646148        26.633598965         1.606502652
    67.658426488        34.327749115         1.606502652
    63.216206828        42.021899265         1.606502652
    58.773985844        49.716051708         1.606502652
    54.331767507        57.410199564         1.606502652
    49.889546523        65.104352007         1.606502652
    45.447328187        72.798499864         1.606502652
     3.758801582         5.326719908         1.606502652
    -0.683418409        13.020870631         1.606502652
    -5.125638731        20.715021927         1.606502652
    -9.567858391        28.409172077         1.606502652
   -14.010078052        36.103322227         1.606502652
   -18.452299036        43.797474669         1.606502652
   -22.894517372        51.491622526         1.606502652
   -27.336738356        59.185774969         1.606502652
   -31.778956692        66.879922826         1.606502652
   -36.221177676        74.574075268         1.606502652
    12.643241564         5.326719908         1.606502652
     8.201021573        13.020870631         1.606502652
     3.758801251        20.715021927         1.606502652
    -0.683418409        28.409172077         1.606502652
    -5.125638069        36.103322227         1.606502652
    -9.567859053        43.797474669         1.606502652
   -14.010077390        51.491622526         1.606502652
   -18.452298374        59.185774969         1.606502652
   -22.894516710        66.879922826         1.606502652
   -27.336737694        74.574075268         1.606502652
    21.527682208         5.326719908         1.606502652
    17.085462217        13.020870631         1.606502652
    12.643241895        20.715021927         1.606502652
     8.201022235        28.409172077         1.606502652
     3.758802575        36.103322227         1.606502652
    -0.683418409        43.797474669         1.606502652
    -5.125636746        51.491622526         1.606502652
    -9.567857730        59.185774969         1.606502652
   -14.010076066        66.879922826         1.606502652
   -18.452297050        74.574075268         1.606502652
    30.412121529         5.326719908         1.606502652
    25.969901537        13.020870631         1.606502652
    21.527681215        20.715021927         1.606502652
    17.085461555        28.409172077         1.606502652
    12.643241895        36.103322227         1.606502652
     8.201020911        43.797474669         1.606502652
     3.758802575        51.491622526         1.606502652
    -0.683418409        59.185774969         1.606502652
    -5.125636746        66.879922826         1.606502652
    -9.567857730        74.574075268         1.606502652
    39.296560849         5.326719908         1.606502652
    34.854340858        13.020870631         1.606502652
    30.412120536        20.715021927         1.606502652
    25.969900876        28.409172077         1.606502652
    21.527681215        36.103322227         1.606502652
    17.085460231        43.797474669         1.606502652
    12.643241895        51.491622526         1.606502652
     8.201020911        59.185774969         1.606502652
     3.758802575        66.879922826         1.606502652
    -0.683418409        74.574075268         1.606502652
    48.181000169         5.326719908         1.606502652
    43.738780178        13.020870631         1.606502652
    39.296559856        20.715021927         1.606502652
    34.854340196        28.409172077         1.606502652
    30.412120536        36.103322227         1.606502652
    25.969899552        43.797474669         1.606502652
    21.527681215        51.491622526         1.606502652
    17.085460231        59.185774969         1.606502652
    12.643241895        66.879922826         1.606502652
     8.201020911        74.574075268         1.606502652
    57.065442137         5.326719908         1.606502652
    52.623222146        13.020870631         1.606502652
    48.181001824        20.715021927         1.606502652
    43.738782164        28.409172077         1.606502652
    39.296562504        36.103322227         1.606502652
    34.854341520        43.797474669         1.606502652
    30.412123183        51.491622526         1.606502652
    25.969902199        59.185774969         1.606502652
    21.527683863        66.879922826         1.606502652
    17.085462879        74.574075268         1.606502652
    65.949878810         5.326719908         1.606502652
    61.507658819        13.020870631         1.606502652
    57.065438497        20.715021927         1.606502652
    52.623218836        28.409172077         1.606502652
    48.180999176        36.103322227         1.606502652
    43.738778192        43.797474669         1.606502652
    39.296559856        51.491622526         1.606502652
    34.854338872        59.185774969         1.606502652
    30.412120536        66.879922826         1.606502652
    25.969899552        74.574075268         1.606502652
    74.834320778         5.326719908         1.606502652
    70.392100787        13.020870631         1.606502652
    65.949880465        20.715021927         1.606502652
    61.507660804        28.409172077         1.606502652
    57.065441144        36.103322227         1.606502652
    52.623220160        43.797474669         1.606502652
    48.181001824        51.491622526         1.606502652
    43.738780840        59.185774969         1.606502652
    39.296562504        66.879922826         1.606502652
    34.854341520        74.574075268         1.606502652
    83.718762746         5.326719908         1.606502652
    79.276542755        13.020870631         1.606502652
    74.834322433        20.715021927         1.606502652
    70.392102773        28.409172077         1.606502652
    65.949883112        36.103322227         1.606502652
    61.507662128        43.797474669         1.606502652
    57.065443792        51.491622526         1.606502652
    52.623222808        59.185774969         1.606502652
    48.181004472        66.879922826         1.606502652
    43.738783488        74.574075268         1.606502652
     2.050255559         7.102293019         1.606502652
    -2.391964432        14.796443742         1.606502652
    -6.834184754        22.490595038         1.606502652
   -11.276404415        30.184745188         1.606502652
   -15.718624075        37.878895338         1.606502652
   -20.160843735        45.573045488         1.606502652
   -24.603064719        53.267197931         1.606502652
   -29.045283055        60.961345787         1.606502652
   -33.487504039        68.655498230         1.606502652
   -37.929725023        76.349650673         1.606502652
    10.934695541         7.102293019         1.606502652
     6.492475550        14.796443742         1.606502652
     2.050255228        22.490595038         1.606502652
    -2.391964432        30.184745188         1.606502652
    -6.834184093        37.878895338         1.606502652
   -11.276403753        45.573045488         1.606502652
   -15.718624737        53.267197931         1.606502652
   -20.160843073        60.961345787         1.606502652
   -24.603064057        68.655498230         1.606502652
   -29.045285041        76.349650673         1.606502652
    19.819136185         7.102293019         1.606502652