 C                                      
   1.00000000000000     
     8.8844398405645588    0.0000000000000000    0.0000000000000000
    -4.4422209448285823    7.6941500088189798    0.0000000000000000
     0.0000000000000000    0.0000000000000000    6.4260104996574903
   C 
    52
Direct
  0.0000000000000000  0.0000000000000000  0.2500000000000000
  0.0769230800000003  0.7692307829999976  0.2500000000000000
  0.9230769280000004  0.2307692320000001  0.2500000000000000
  0.8461538549999972  0.4615384640000002  0.2500000000000000
  0.7692307829999976  0.6923077109999980  0.2500000000000000
  0.6923077109999980  0.9230769280000004  0.2500000000000000
  0.3846153909999970  0.8461538549999972  0.2500000000000000
  0.3076923189999974  0.0769230800000003  0.2500000000000000
  0.2307692320000001  0.3076923189999974  0.2500000000000000
  0.1538461600000005  0.5384615660000023  0.2500000000000000
  0.6153846380000019  0.1538461600000005  0.2500000000000000
  0.5384615660000023  0.3846153909999970  0.2500000000000000
  0.4615384640000002  0.6153846380000019  0.2500000000000000
  0.0000000000000000  0.0000000000000000  0.7500000000000000
  0.0769230800000003  0.7692307829999976  0.7500000000000000
  0.9230769280000004  0.2307692320000001  0.7500000000000000
  0.8461538549999972  0.4615384640000002  0.7500000000000000
  0.7692307829999976  0.6923077109999980  0.7500000000000000
  0.6923077109999980  0.9230769280000004  0.7500000000000000
  0.3846153909999970  0.8461538549999972  0.7500000000000000
  0.3076923189999974  0.0769230800000003  0.7500000000000000
  0.2307692320000001  0.3076923189999974  0.7500000000000000
  0.1538461600000005  0.5384615660000023  0.7500000000000000
  0.6153846380000019  0.1538461600000005  0.7500000000000000
  0.5384615660000023  0.3846153909999970  0.7500000000000000
  0.4615384640000002  0.6153846380000019  0.7500000000000000
  0.0512820519999977  0.1794871840000027  0.2500000000000000
  0.1282051350000017  0.9487179520000026  0.2500000000000000
  0.9743589759999978  0.4102564160000028  0.2500000000000000
  0.8974359039999982  0.6410256619999970  0.2500000000000000
  0.8205128310000021  0.8717948789999994  0.2500000000000000
  0.7435897590000025  0.1025641040000025  0.2500000000000000
  0.4358974399999980  0.0256410300000027  0.2500000000000000
  0.3589743670000018  0.2564102710000000  0.2500000000000000
  0.2820512950000023  0.4871794880000024  0.2500000000000000
  0.2051282079999979  0.7179487350000002  0.2500000000000000
  0.6666666870000029  0.3333333429999996  0.2500000000000000
  0.5897436139999996  0.5641025899999974  0.2500000000000000
  0.5128205420000000  0.7948718069999998  0.2500000000000000
  0.1794871840000027  0.1282051350000017  0.7500000000000000
  0.2564102710000000  0.8974359039999982  0.7500000000000000
  0.1025641040000025  0.3589743670000018  0.7500000000000000
  0.0256410300000027  0.5897436139999996  0.7500000000000000
  0.9487179520000026  0.8205128310000021  0.7500000000000000
  0.8717948789999994  0.0512820590000018  0.7500000000000000
  0.5641025899999974  0.9743589759999978  0.7500000000000000
  0.4871794880000024  0.2051282079999979  0.7500000000000000
  0.4102564160000028  0.4358974399999980  0.7500000000000000
  0.3333333429999996  0.6666666870000029  0.7500000000000000
  0.7948718069999998  0.2820512950000023  0.7500000000000000
  0.7179487350000002  0.5128205420000000  0.7500000000000000
  0.6410256619999970  0.7435897590000025  0.7500000000000000
 
  0.00000000E+00  0.00000000E+00  0.00000000E+00
  0.00000000E+00  0.00000000E+00  0.00000000E+00
  0.00000000E+00  0.00000000E+00  0.00000000E+00
  0.00000000E+00  0.00000000E+00  0.00000000E+00
  0.00000000E+00  0.00000000E+00  0.00000000E+00
  0.00000000E+00  0.00000000E+00  0.00000000E+00
  0.00000000E+00  0.00000000E+00  0.00000000E+00
  0.00000000E+00  0.00000000E+00  0.00000000E+00
  0.00000000E+00  0.00000000E+00  0.00000000E+00
  0.00000000E+00  0.00000000E+00  0.00000000E+00
  0.00000000E+00  0.00000000E+00  0.00000000E+00
  0.00000000E+00  0.00000000E+00  0.00000000E+00
  0.00000000E+00  0.00000000E+00  0.00000000E+00
  0.00000000E+00  0.00000000E+00  0.00000000E+00
  0.00000000E+00  0.00000000E+00  0.00000000E+00
  0.00000000E+00  0.00000000E+00  0.00000000E+00
  0.00000000E+00  0.00000000E+00  0.00000000E+00
  0.00000000E+00  0.00000000E+00  0.00000000E+00
  0.00000000E+00  0.00000000E+00  0.00000000E+00
  0.00000000E+00  0.00000000E+00  0.00000000E+00
  0.00000000E+00  0.00000000E+00  0.00000000E+00
  0.00000000E+00  0.00000000E+00  0.00000000E+00
  0.00000000E+00  0.00000000E+00  0.00000000E+00
  0.00000000E+00  0.00000000E+00  0.00000000E+00
  0.00000000E+00  0.00000000E+00  0.00000000E+00
  0.00000000E+00  0.00000000E+00  0.00000000E+00
  0.00000000E+00  0.00000000E+00  0.00000000E+00
  0.00000000E+00  0.00000000E+00  0.00000000E+00
  0.00000000E+00  0.00000000E+00  0.00000000E+00
  0.00000000E+00  0.00000000E+00  0.00000000E+00
  0.00000000E+00  0.00000000E+00  0.00000000E+00
  0.00000000E+00  0.00000000E+00  0.00000000E+00
  0.00000000E+00  0.00000000E+00  0.00000000E+00
  0.00000000E+00  0.00000000E+00  0.00000000E+00
  0.00000000E+00  0.00000000E+00  0.00000000E+00
  0.00000000E+00  0.00000000E+00  0.00000000E+00
  0.00000000E+00  0.00000000E+00  0.00000000E+00
  0.00000000E+00  0.00000000E+00  0.00000000E+00
  0.00000000E+00  0.00000000E+00  0.00000000E+00
  0.00000000E+00  0.00000000E+00  0.00000000E+00
  0.00000000E+00  0.00000000E+00  0.00000000E+00
  0.00000000E+00  0.00000000E+00  0.00000000E+00
  0.00000000E+00  0.00000000E+00  0.00000000E+00
  0.00000000E+00  0.00000000E+00  0.00000000E+00
  0.00000000E+00  0.00000000E+00  0.00000000E+00
  0.00000000E+00  0.00000000E+00  0.00000000E+00
  0.00000000E+00  0.00000000E+00  0.00000000E+00
  0.00000000E+00  0.00000000E+00  0.00000000E+00
  0.00000000E+00  0.00000000E+00  0.00000000E+00
  0.00000000E+00  0.00000000E+00  0.00000000E+00
  0.00000000E+00  0.00000000E+00  0.00000000E+00
  0.00000000E+00  0.00000000E+00  0.00000000E+00
