 C                                      
1.0
        6.5194172859         0.0000000000         0.0000000000
       -3.2597086430         5.6459809875         0.0000000000
        0.0000000000         0.0000000000         6.4266276360
    C
   28
Cartesian
     0.000000000         0.000000000         1.606656909
    -1.397018075         4.032843590         1.606656909
     4.656726360         1.613137484         1.606656909
     2.794036150         3.226274967         1.606656909
     0.931345344         4.839412212         1.606656909
     2.328363180         0.806568742         1.606656909
     0.465672672         2.419706106         1.606656909
     0.000000000         0.000000000         4.819970608
    -1.397018075         4.032843590         4.819970608
     4.656726360         1.613137484         4.819970608
     2.794036150         3.226274967         4.819970608
     0.931345344         4.839412212         4.819970608
     2.328363180         0.806568742         4.819970608
     0.465672672         2.419706106         4.819970608
    -0.465672672         1.344281197         1.606656909
    -1.862690687         5.377124786         1.606656909
     4.191053867         2.957418680         1.606656909
     2.328363180         4.570556164         1.606656909
     3.725381613         0.537712455         1.606656909
     1.862690568         2.150849819         1.606656909
    -0.000000065         3.763987303         1.606656909
     0.931345284         1.075424910         4.819970608
    -0.465672702         5.108268261         4.819970608
    -0.931345344         2.688562393         4.819970608
     3.725381136         4.301699638         4.819970608
     5.122399330         0.268856257         4.819970608
     3.259708643         1.881993651         4.819970608
     1.397018075         3.495131016         4.819970608
