 C                                      
   1.00000000000000     
     6.5211660807466831    0.0000000004763668    0.0000000000000000
    -3.2605830407858871    5.6474954879790760    0.0000000000000000
     0.0000000000000000    0.0000000000000000   19.2307797561425318
   C 
    28
Direct
 -0.0000000000000000 -0.0000000000000000  0.4154169172798297
  0.8095238209999991  0.0476190520000017  0.5846074632735129
  0.9523809550000024  0.7619047760000015  0.5846074632735129
  0.0952380969999993  0.4761904779999995  0.5846074632735129
  0.3809523879999972  0.9047619099999977  0.5846074632735129
  0.2380952390000033  0.1904761939999986  0.5846074632735129
  0.3333333429999996  0.6666666870000029  0.4153925367264942
  0.4761904779999995  0.3809523879999972  0.4153925367264942
  0.6190476419999982  0.0952380969999993  0.4153925367264942
  0.7619047760000015  0.8095238209999991  0.4153925367264942
  0.9047619099999977  0.5238095520000030  0.4153925367264942
  0.1904761939999986  0.9523809550000024  0.4153925367264942
  0.0476190489999979  0.2380952390000033  0.4153925367264942
  0.2857142980000020  0.4285714330000019  0.5845830827201773
  0.4285714330000019  0.1428571490000010  0.5845830827201773
  0.5714285970000006  0.8571428659999967  0.5845830827201773
  0.7142857309999968  0.5714285970000006  0.5845830827201773
  0.8571428659999967  0.2857142980000020  0.5845830827201773
  0.1428571490000010  0.7142857309999968  0.5845830827201773
 -0.0000000000000000 -0.0000000000000000  0.5845830827201773
  0.2857142980000020  0.4285714330000019  0.4154169172798297
  0.4285714330000019  0.1428571490000010  0.4154169172798297
  0.5714285970000006  0.8571428659999967  0.4154169172798297
  0.7142857309999968  0.5714285970000006  0.4154169172798297
  0.8571428659999967  0.2857142980000020  0.4154169172798297
  0.1428571490000010  0.7142857309999968  0.4154169172798297
  0.6666666870000029  0.3333333429999996  0.5846074632735129
  0.5238095520000030  0.6190476419999982  0.5846074632735129
 
  0.00000000E+00  0.00000000E+00  0.00000000E+00
  0.00000000E+00  0.00000000E+00  0.00000000E+00
  0.00000000E+00  0.00000000E+00  0.00000000E+00
  0.00000000E+00  0.00000000E+00  0.00000000E+00
  0.00000000E+00  0.00000000E+00  0.00000000E+00
  0.00000000E+00  0.00000000E+00  0.00000000E+00
  0.00000000E+00  0.00000000E+00  0.00000000E+00
  0.00000000E+00  0.00000000E+00  0.00000000E+00
  0.00000000E+00  0.00000000E+00  0.00000000E+00
  0.00000000E+00  0.00000000E+00  0.00000000E+00
  0.00000000E+00  0.00000000E+00  0.00000000E+00
  0.00000000E+00  0.00000000E+00  0.00000000E+00
  0.00000000E+00  0.00000000E+00  0.00000000E+00
  0.00000000E+00  0.00000000E+00  0.00000000E+00
  0.00000000E+00  0.00000000E+00  0.00000000E+00
  0.00000000E+00  0.00000000E+00  0.00000000E+00
  0.00000000E+00  0.00000000E+00  0.00000000E+00
  0.00000000E+00  0.00000000E+00  0.00000000E+00
  0.00000000E+00  0.00000000E+00  0.00000000E+00
  0.00000000E+00  0.00000000E+00  0.00000000E+00
  0.00000000E+00  0.00000000E+00  0.00000000E+00
  0.00000000E+00  0.00000000E+00  0.00000000E+00
  0.00000000E+00  0.00000000E+00  0.00000000E+00
  0.00000000E+00  0.00000000E+00  0.00000000E+00
  0.00000000E+00  0.00000000E+00  0.00000000E+00
  0.00000000E+00  0.00000000E+00  0.00000000E+00
  0.00000000E+00  0.00000000E+00  0.00000000E+00
  0.00000000E+00  0.00000000E+00  0.00000000E+00
