 C                                      
1.0
       65.2117004395         0.0000000000         0.0000000000
      -32.6058311462        56.4749561683         0.0000000000
        0.0000000000         0.0000000000        19.2307796478
    C
 2800
Cartesian
     0.000000000         0.000000000         7.988791466
    -3.260583162         5.647495747         7.988791466
    -6.521166325        11.294991493         7.988791466
    -9.781749725        16.942487717         7.988791466
   -13.042332649        22.589982986         7.988791466
   -16.302915573        28.237478256         7.988791466
   -19.563499451        33.884975433         7.988791466
   -22.824081421        39.532470703         7.988791466
   -26.084665298        45.179965973         7.988791466
   -29.345247269        50.827461243         7.988791466
     6.521170139         0.000000000         7.988791466
     3.260586977         5.647495747         7.988791466
     0.000003813        11.294991493         7.988791466
    -3.260579586        16.942487717         7.988791466
    -6.521162510        22.589982986         7.988791466
    -9.781745911        28.237478256         7.988791466
   -13.042329788        33.884975433         7.988791466
   -16.302911758        39.532470703         7.988791466
   -19.563495636        45.179965973         7.988791466
   -22.824077606        50.827461243         7.988791466
    13.042340279         0.000000000         7.988791466
     9.781757355         5.647495747         7.988791466
     6.521173954        11.294991493         7.988791466
     3.260590553        16.942487717         7.988791466
     0.000007626        22.589982986         7.988791466
    -3.260575294        28.237478256         7.988791466
    -6.521159172        33.884975433         7.988791466
    -9.781741142        39.532470703         7.988791466
   -13.042325020        45.179965973         7.988791466
   -16.302906036        50.827461243         7.988791466
    19.563510895         0.000000000         7.988791466
    16.302927017         5.647495747         7.988791466
    13.042344093        11.294991493         7.988791466
     9.781761169        16.942487717         7.988791466
     6.521178246        22.589982986         7.988791466
     3.260595322        28.237478256         7.988791466
     0.000011430        33.884975433         7.988791466
    -3.260570526        39.532470703         7.988791466
    -6.521154404        45.179965973         7.988791466
    -9.781736374        50.827461243         7.988791466
    26.084680557         0.000000000         7.988791466
    22.824096680         5.647495747         7.988791466
    19.563514709        11.294991493         7.988791466
    16.302930832        16.942487717         7.988791466
    13.042347908        22.589982986         7.988791466
     9.781764984        28.237478256         7.988791466
     6.521181107        33.884975433         7.988791466
     3.260599136        39.532470703         7.988791466
     0.000015252        45.179965973         7.988791466
    -3.260566711        50.827461243         7.988791466
    32.605850220         0.000000000         7.988791466
    29.345266342         5.647495747         7.988791466
    26.084684372        11.294991493         7.988791466
    22.824100494        16.942487717         7.988791466
    19.563516617        22.589982986         7.988791466
    16.302934647        28.237478256         7.988791466
    13.042350769        33.884975433         7.988791466
     9.781768799        39.532470703         7.988791466
     6.521184921        45.179965973         7.988791466
     3.260602951        50.827461243         7.988791466
    39.127021790         0.000000000         7.988791466
    35.866439819         5.647495747         7.988791466
    32.605854034        11.294991493         7.988791466
    29.345272064        16.942487717         7.988791466
    26.084688187        22.589982986         7.988791466
    22.824106216        28.237478256         7.988791466
    19.563522339        33.884975433         7.988791466
    16.302940369        39.532470703         7.988791466
    13.042356491        45.179965973         7.988791466
     9.781774521        50.827461243         7.988791466
    45.648189545         0.000000000         7.988791466
    42.387607574         5.647495747         7.988791466
    39.127021790        11.294991493         7.988791466
    35.866439819        16.942487717         7.988791466
    32.605857849        22.589982986         7.988791466
    29.345273972        28.237478256         7.988791466
    26.084690094        33.884975433         7.988791466
    22.824108124        39.532470703         7.988791466
    19.563524246        45.179965973         7.988791466
    16.302942276        50.827461243         7.988791466
    52.169361115         0.000000000         7.988791466
    48.908779144         5.647495747         7.988791466
    45.648193359        11.294991493         7.988791466
    42.387611389        16.942487717         7.988791466
    39.127029419        22.589982986         7.988791466
    35.866447449        28.237478256         7.988791466
    32.605861664        33.884975433         7.988791466
    29.345279694        39.532470703         7.988791466
    26.084695816        45.179965973         7.988791466
    22.824113846        50.827461243         7.988791466
    58.690528870         0.000000000         7.988791466
    55.429946899         5.647495747         7.988791466
    52.169361115        11.294991493         7.988791466
    48.908779144        16.942487717         7.988791466
    45.648197174        22.589982986         7.988791466
    42.387611389        28.237478256         7.988791466
    39.127029419        33.884975433         7.988791466
    35.866447449        39.532470703         7.988791466
    32.605861664        45.179965973         7.988791466
    29.345281601        50.827461243         7.988791466
     5.123776913         0.268928409        11.242457390
     1.863193750         5.916424274        11.242457390
    -1.397389412        11.563920021        11.242457390
    -4.657972813        17.211416245        11.242457390
    -7.918555737        22.858911514        11.242457390
   -11.179140091        28.506408691        11.242457390
   -14.439723969        34.153903961        11.242457390
   -17.700305939        39.801399231        11.242457390
   -20.960889816        45.448894501        11.242457390
   -24.221471786        51.096389771        11.242457390
    11.644947052         0.268928409        11.242457390
     8.384364128         5.916424274        11.242457390
     5.123780727        11.563920021        11.242457390
     1.863197327        17.211416245        11.242457390
    -1.397385597        22.858911514        11.242457390
    -4.657969475        28.506408691        11.242457390
    -7.918553352        34.153903961        11.242457390
   -11.179135323        39.801399231        11.242457390
   -14.439719200        45.448894501        11.242457390
   -17.700302124        51.096389771        11.242457390
    18.166116714         0.268928409        11.242457390
    14.905533791         5.916424274        11.242457390
    11.644949913        11.563920021        11.242457390
     8.384366989        17.211416245        11.242457390
     5.123784065        22.858911514        11.242457390
     1.863200068        28.506408691        11.242457390
    -1.397383809        34.153903961        11.242457390
    -4.657965660        39.801399231        11.242457390
    -7.918549538        45.448894501        11.242457390
   -11.179131508        51.096389771        11.242457390
    24.687286377         0.268928409        11.242457390
    21.426702499         5.916424274        11.242457390
    18.166120529        11.563920021        11.242457390
    14.905536652        17.211416245        11.242457390
    11.644953728        22.858911514        11.242457390
     8.384369850        28.506408691        11.242457390
     5.123785973        34.153903961        11.242457390
     1.863204002        39.801399231        11.242457390
    -1.397379994        45.448894501        11.242457390
    -4.657961845        51.096389771        11.242457390
    31.208456039         0.268928409        11.242457390
    27.947872162         5.916424274        11.242457390
    24.687290192        11.563920021        11.242457390
    21.426706314        17.211416245        11.242457390
    18.166122437        22.858911514        11.242457390
    14.905539513        28.506408691        11.242457390
    11.644955635        34.153903961        11.242457390
     8.384373665        39.801399231        11.242457390
     5.123789787        45.448894501        11.242457390
     1.863207817        51.096389771        11.242457390
    37.729629517         0.268928409        11.242457390
    34.469047546         5.916424274        11.242457390
    31.208463669        11.563920021        11.242457390
    27.947879791        17.211416245        11.242457390
    24.687295914        22.858911514        11.242457390
    21.426712036        28.506408691        11.242457390
    18.166128159        34.153903961        11.242457390
    14.905547142        39.801399231        11.242457390
    11.644963264        45.448894501        11.242457390
     8.384381294        51.096389771        11.242457390
    44.250801086         0.268928409        11.242457390
    40.990219116         5.916424274        11.242457390
    37.729633331        11.563920021        11.242457390
    34.469051361        17.211416245        11.242457390
    31.208467484        22.858911514        11.242457390
    27.947883606        28.506408691        11.242457390
    24.687299728        34.153903961        11.242457390
    21.426717758        39.801399231        11.242457390
    18.166133881        45.448894501        11.242457390
    14.905552864        51.096389771        11.242457390
    50.771968842         0.268928409        11.242457390
    47.511386871         5.916424274        11.242457390
    44.250801086        11.563920021        11.242457390
    40.990219116        17.211416245        11.242457390
    37.729637146        22.858911514        11.242457390
    34.469051361        28.506408691        11.242457390
    31.208467484        34.153903961        11.242457390
    27.947885513        39.801399231        11.242457390
    24.687301636        45.448894501        11.242457390
    21.426719666        51.096389771        11.242457390
    57.293140411         0.268928409        11.242457390
    54.032558441         5.916424274        11.242457390
    50.771972656        11.563920021        11.242457390
    47.511390686        17.211416245        11.242457390
    44.250808716        22.858911514        11.242457390
    40.990222931        28.506408691        11.242457390
    37.729640961        34.153903961        11.242457390
    34.469058990        39.801399231        11.242457390
    31.208473206        45.448894501        11.242457390
    27.947891235        51.096389771        11.242457390
    63.814308167         0.268928409        11.242457390
    60.553726196         5.916424274        11.242457390
    57.293140411        11.563920021        11.242457390
    54.032558441        17.211416245        11.242457390
    50.771976471        22.858911514        11.242457390
    47.511390686        28.506408691        11.242457390
    44.250808716        34.153903961        11.242457390
    40.990226746        39.801399231        11.242457390
    37.729640961        45.448894501        11.242457390
    34.469058990        51.096389771        11.242457390
     3.726384163         4.302854061        11.242457390
     0.465801001         9.950349808        11.242457390
    -2.794782400        15.597846031        11.242457390
    -6.055365562        21.245340347        11.242457390
    -9.315948486        26.892835617        11.242457390
   -12.576531410        32.540332794        11.242457390
   -15.837115288        38.187828064        11.242457390
   -19.097696304        43.835323334        11.242457390
   -22.358280182        49.482818604        11.242457390
   -25.618862152        55.130313873        11.242457390
    10.247554779         4.302854061        11.242457390
     6.986971378         9.950349808        11.242457390
     3.726388216        15.597846031        11.242457390
     0.465805262        21.245340347        11.242457390
    -2.794777632        26.892835617        11.242457390
    -6.055360794        32.540332794        11.242457390
    -9.315944672        38.187828064        11.242457390
   -12.576526642        43.835323334        11.242457390
   -15.837110519        49.482818604        11.242457390
   -19.097692490        55.130313873        11.242457390
    16.768724442         4.302854061        11.242457390
    13.508142471         9.950349808        11.242457390
    10.247558594        15.597846031        11.242457390
     6.986975670        21.245340347        11.242457390
     3.726392984        26.892835617        11.242457390
     0.465810061        32.540332794        11.242457390
    -2.794773817        38.187828064        11.242457390
    -6.055356026        43.835323334        11.242457390
    -9.315939903        49.482818604        11.242457390
   -12.576521873        55.130313873        11.242457390
    23.289894104         4.302854061        11.242457390
    20.029312134         9.950349808        11.242457390
    16.768728256        15.597846031        11.242457390
    13.508145332        21.245340347        11.242457390
    10.247562408        26.892835617        11.242457390
     6.986979485        32.540332794        11.242457390
     3.726395845        38.187828064        11.242457390
     0.465813875        43.835323334        11.242457390
    -2.794770002        49.482818604        11.242457390
    -6.055351734        55.130313873        11.242457390
    29.811063766         4.302854061        11.242457390
    26.550481796         9.950349808        11.242457390
    23.289897919        15.597846031        11.242457390
    20.029315948        21.245340347        11.242457390
    16.768732071        26.892835617        11.242457390
    13.508149147        32.540332794        11.242457390
    10.247565269        38.187828064        11.242457390
     6.986983299        43.835323334        11.242457390
     3.726399660        49.482818604        11.242457390
     0.465817690        55.130313873        11.242457390
    36.332233429         4.302854061        11.242457390
    33.071647644         9.950349808        11.242457390
    29.811065674        15.597846031        11.242457390
    26.550483704        21.245340347        11.242457390
    23.289899826        26.892835617        11.242457390
    20.029317856        32.540332794        11.242457390
    16.768733978        38.187828064        11.242457390
    13.508151054        43.835323334        11.242457390
    10.247567177        49.482818604        11.242457390
     6.986985683        55.130313873        11.242457390
    42.853404999         4.302854061        11.242457390
    39.592819214         9.950349808        11.242457390
    36.332237244        15.597846031        11.242457390
    33.071655273        21.245340347        11.242457390
    29.811071396        26.892835617        11.242457390
    26.550489426        32.540332794        11.242457390
    23.289905548        38.187828064        11.242457390
    20.029323578        43.835323334        11.242457390
    16.768739700        49.482818604        11.242457390
    13.508156776        55.130313873        11.242457390
    49.374572754         4.302854061        11.242457390
    46.113986969         9.950349808        11.242457390
    42.853404999        15.597846031        11.242457390
    39.592823029        21.245340347        11.242457390
    36.332241058        26.892835617        11.242457390
    33.071655273        32.540332794        11.242457390
    29.811073303        38.187828064        11.242457390
    26.550491333        43.835323334        11.242457390
    23.289907455        49.482818604        11.242457390
    20.029325485        55.130313873        11.242457390
    55.895744324         4.302854061        11.242457390
    52.635158539         9.950349808        11.242457390
    49.374576569        15.597846031        11.242457390
    46.113994598        21.245340347        11.242457390
    42.853412628        26.892835617        11.242457390
    39.592826843        32.540332794        11.242457390
    36.332244873        38.187828064        11.242457390
    33.071662903        43.835323334        11.242457390
    29.811079025        49.482818604        11.242457390
    26.550497055        55.130313873        11.242457390
    62.416915894         4.302854061        11.242457390
    59.156330109         9.950349808        11.242457390
    55.895748138        15.597846031        11.242457390
    52.635166168        21.245340347        11.242457390
    49.374584198        26.892835617        11.242457390
    46.113998413        32.540332794        11.242457390
    42.853416443        38.187828064        11.242457390
    39.592834473        43.835323334        11.242457390
    36.332248688        49.482818604        11.242457390
    33.071666718        55.130313873        11.242457390
    -0.931594849         2.689283609        11.242457390
    -4.192178249         8.336779594        11.242457390
    -7.452761173        13.984274864        11.242457390
   -10.713344574        19.631771088        11.242457390
   -13.973927498        25.279266357        11.242457390
   -17.234510422        30.926761627        11.242457390
   -20.495094299        36.574256897        11.242457390
   -23.755676270        42.221752167        11.242457390
   -27.016260147        47.869251251        11.242457390
   -30.276842117        53.516742706        11.242457390
     5.589575291         2.689283609        11.242457390
     2.328991890         8.336779594        11.242457390
    -0.931591034        13.984274864        11.242457390
    -4.192174435        19.631771088        11.242457390
    -7.452757359        25.279266357        11.242457390
   -10.713339806        30.926761627        11.242457390
   -13.973923683        36.574256897        11.242457390
   -17.234506607        42.221752167        11.242457390
   -20.495090485        47.869251251        11.242457390
   -23.755672455        53.516742706        11.242457390
    12.110745430         2.689283609        11.242457390
     8.850162506         8.336779594        11.242457390
     5.589579582        13.984274864        11.242457390
     2.328996181        19.631771088        11.242457390
    -0.931586742        25.279266357        11.242457390
    -4.192169666        30.926761627        11.242457390
    -7.452753544        36.574256897        11.242457390
   -10.713335037        42.221752167        11.242457390
   -13.973918915        47.869251251        11.242457390
   -17.234500885        53.516742706        11.242457390
    18.631916046         2.689283609        11.242457390
    15.371332169         8.336779594        11.242457390
    12.110749245        13.984274864        11.242457390
     8.850166321        19.631771088        11.242457390
     5.589582920        25.279266357        11.242457390
     2.328999996        30.926761627        11.242457390
    -0.931583881        36.574256897        11.242457390
    -4.192165852        42.221752167        11.242457390
    -7.452749729        47.869251251        11.242457390
   -10.713331223        53.516742706        11.242457390
    25.153085709         2.689283609        11.242457390
    21.892501831         8.336779594        11.242457390
    18.631919861        13.984274864        11.242457390
    15.371335983        19.631771088        11.242457390
    12.110753059        25.279266357        11.242457390
     8.850170135        30.926761627        11.242457390
     5.589585781        36.574256897        11.242457390
     2.329003811        42.221752167        11.242457390
    -0.931580067        47.869251251        11.242457390
    -4.192162037        53.516742706        11.242457390
    31.674255371         2.689283609        11.242457390
    28.413671494         8.336779594        11.242457390
    25.153089523        13.984274864        11.242457390
    21.892505646        19.631771088        11.242457390
    18.631921768        25.279266357        11.242457390
    15.371339798        30.926761627        11.242457390
    12.110755920        36.574256897        11.242457390
     8.850173950        42.221752167        11.242457390
     5.589589596        47.869251251        11.242457390
     2.329007626        53.516742706        11.242457390
    38.195426941         2.689283609        11.242457390
    34.934844971         8.336779594        11.242457390
    31.674261093        13.984274864        11.242457390
    28.413677216        19.631771088        11.242457390
    25.153093338        25.279266357        11.242457390
    21.892511368        30.926761627        11.242457390
    18.631927490        36.574256897        11.242457390
    15.371345520        42.221752167        11.242457390
    12.110761642        47.869251251        11.242457390
     8.850179672        53.516742706        11.242457390
    44.716594696         2.689283609        11.242457390
    41.456012726         8.336779594        11.242457390
    38.195426941        13.984274864        11.242457390
    34.934844971        19.631771088        11.242457390
    31.674261093        25.279266357        11.242457390
    28.413679123        30.926761627        11.242457390
    25.153095245        36.574256897        11.242457390
    21.892513275        42.221752167        11.242457390
    18.631929398        47.869251251        11.242457390
    15.371347427        53.516742706        11.242457390
    51.237766266         2.689283609        11.242457390
    47.977184296         8.336779594        11.242457390
    44.716598511        13.984274864        11.242457390
    41.456016541        19.631771088        11.242457390
    38.195434570        25.279266357        11.242457390
    34.934848785        30.926761627        11.242457390
    31.674266815        36.574256897        11.242457390
    28.413684845        42.221752167        11.242457390
    25.153100967        47.869251251        11.242457390
    21.892518997        53.516742706        11.242457390
    57.758934021         2.689283609        11.242457390
    54.498352051         8.336779594        11.242457390
    51.237766266        13.984274864        11.242457390
    47.977184296        19.631771088        11.242457390
    44.716602325        25.279266357        11.242457390
    41.456016541        30.926761627        11.242457390
    38.195434570        36.574256897        11.242457390
    34.934852600        42.221752167        11.242457390
    31.674268723        47.869251251        11.242457390
    28.413686752        53.516742706        11.242457390
    -0.465796143         5.109639168        11.242457390
    -3.726379395        10.757134438        11.242457390
    -6.986962795        16.404630661        11.242457390
   -10.247545242        22.052125931        11.242457390
   -13.508128166        27.699621201        11.242457390
   -16.768712997        33.347118378        11.242457390
   -20.029296875        38.994617462        11.242457390
   -23.289878845        44.642108917        11.242457390
   -26.550462723        50.289608002        11.242457390
   -29.811044693        55.937099457        11.242457390
     6.055374146         5.109639168        11.242457390
     2.794790745        10.757134438        11.242457390
    -0.465792567        16.404630661        11.242457390
    -3.726375580        22.052125931        11.242457390
    -6.986958504        27.699621201        11.242457390
   -10.247542381        33.347118378        11.242457390
   -13.508126259        38.994617462        11.242457390
   -16.768707275        44.642108917        11.242457390
   -20.029291153        50.289608002        11.242457390
   -23.289873123        55.937099457        11.242457390
    12.576543808         5.109639168        11.242457390
     9.315960884        10.757134438        11.242457390
     6.055377007        16.404630661        11.242457390
     2.794794083        22.052125931        11.242457390
    -0.465788752        27.699621201        11.242457390
    -3.726372719        33.347118378        11.242457390
    -6.986956596        38.994617462        11.242457390
   -10.247538567        44.642108917        11.242457390
   -13.508122444        50.289608002        11.242457390
   -16.768703461        55.937099457        11.242457390
    19.097713470         5.109639168        11.242457390
    15.837131500        10.757134438        11.242457390
    12.576547623        16.404630661        11.242457390
     9.315964699        22.052125931        11.242457390
     6.055381775        27.699621201        11.242457390
     2.794797897        33.347118378        11.242457390
    -0.465785921        38.994617462        11.242457390
    -3.726367950        44.642108917        11.242457390
    -6.986951828        50.289608002        11.242457390
   -10.247533798        55.937099457        11.242457390
    25.618883133         5.109639168        11.242457390
    22.358301163        10.757134438        11.242457390
    19.097717285        16.404630661        11.242457390
    15.837134361        22.052125931        11.242457390
    12.576551437        27.699621201        11.242457390
     9.315967560        33.347118378        11.242457390
     6.055383682        38.994617462        11.242457390
     2.794801712        44.642108917        11.242457390
    -0.465782106        50.289608002        11.242457390
    -3.726364136        55.937099457        11.242457390
    32.140056610         5.109639168        11.242457390
    28.879472733        10.757134438        11.242457390
    25.618888855        16.404630661        11.242457390
    22.358306885        22.052125931        11.242457390
    19.097723007        27.699621201        11.242457390
    15.837139130        33.347118378        11.242457390
    12.576555252        38.994617462        11.242457390
     9.315973282        44.642108917        11.242457390
     6.055389404        50.289608002        11.242457390
     2.794807434        55.937099457        11.242457390
    38.661228180         5.109639168        11.242457390
    35.400642395        10.757134438        11.242457390
    32.140060425        16.404630661        11.242457390
    28.879478455        22.052125931        11.242457390
    25.618894577        27.699621201        11.242457390
    22.358310699        33.347118378        11.242457390
    19.097726822        38.994617462        11.242457390
    15.837144852        44.642108917        11.242457390
    12.576560974        50.289608002        11.242457390
     9.315979004        55.937099457        11.242457390
    45.182395935         5.109639168        11.242457390
    41.921810150        10.757134438        11.242457390
    38.661228180        16.404630661        11.242457390
    35.400646210        22.052125931        11.242457390
    32.140064240        27.699621201        11.242457390
    28.879478455        33.347118378        11.242457390
    25.618894577        38.994617462        11.242457390
    22.358312607        44.642108917        11.242457390
    19.097728729        50.289608002        11.242457390
    15.837146759        55.937099457        11.242457390
    51.703567505         5.109639168        11.242457390
    48.442981720        10.757134438        11.242457390
    45.182399750        16.404630661        11.242457390
    41.921817780        22.052125931        11.242457390
    38.661235809        27.699621201        11.242457390
    35.400650024        33.347118378        11.242457390
    32.140068054        38.994617462        11.242457390
    28.879484177        44.642108917        11.242457390
    25.618900299        50.289608002        11.242457390
    22.358318329        55.937099457        11.242457390
    58.224735260         5.109639168        11.242457390
    54.964149475        10.757134438        11.242457390
    51.703567505        16.404630661        11.242457390
    48.442985535        22.052125931        11.242457390
    45.182403564        27.699621201        11.242457390
    41.921817780        33.347118378        11.242457390
    38.661235809        38.994617462        11.242457390
    35.400653839        44.642108917        11.242457390
    32.140068054        50.289608002        11.242457390
    28.879486084        55.937099457        11.242457390
     0.931596041         1.075713515        11.242457390
    -2.328987122         6.723208904        11.242457390
    -5.589570045        12.370704651        11.242457390
    -8.850153923        18.018201828        11.242457390
   -12.110736847        23.665697098        11.242457390
   -15.371319771        29.313192368        11.242457390
   -18.631902695        34.960689545        11.242457390
   -21.892484665        40.608181000        11.242457390
   -25.153068542        46.255680084        11.242457390
   -28.413650513        51.903171539        11.242457390
     7.452765942         1.075713515        11.242457390
     4.192183018         6.723208904        11.242457390
     0.931599915        12.370704651        11.242457390
    -2.328983545        18.018201828        11.242457390
    -5.589566231        23.665697098        11.242457390
    -8.850149155        29.313192368        11.242457390
   -12.110733032        34.960689545        11.242457390
   -15.371315002        40.608181000        11.242457390
   -18.631898880        46.255680084        11.242457390
   -21.892480850        51.903171539        11.242457390
    13.973936081         1.075713515        11.242457390