 C                                      
1.0
      130.3883361816         0.0000000000         0.0000000000
      -65.1941831270       112.9196028094         0.0000000000
        0.0000000000         0.0000000000         6.4266276360
    C
11200
Cartesian
     0.000000000         0.000000000         1.606656909
    -3.259709205         5.645980225         1.606656909
    -6.519418410        11.291960449         1.606656909
    -9.779127858        16.937941094         1.606656909
   -13.038836820        22.583920898         1.606656909
   -16.298545782        28.229900702         1.606656909
   -19.558255715        33.875882189         1.606656909
   -22.817963706        39.521860310         1.606656909
   -26.077673639        45.167841797         1.606656909
   -29.337381630        50.813819918         1.606656909
   -32.597091563        56.459801405         1.606656909
   -35.856801497        62.105782891         1.606656909
   -39.116511431        67.751764378         1.606656909
   -42.376217478        73.397739134         1.606656909
   -45.635927412        79.043720620         1.606656909
   -48.895637345        84.689702107         1.606656909
   -52.155347279        90.335683594         1.606656909
   -55.415057212        95.981665080         1.606656909
   -58.674763260       101.627639836         1.606656909
   -61.934473193       107.273621323         1.606656909
     6.519416906         0.000000000         1.606656909
     3.259707701         5.645980225         1.606656909
    -0.000001504        11.291960449         1.606656909
    -3.259710951        16.937941094         1.606656909
    -6.519419913        22.583920898         1.606656909
    -9.779128876        28.229900702         1.606656909
   -13.038838809        33.875882189         1.606656909
   -16.298546800        39.521860310         1.606656909
   -19.558256733        45.167841797         1.606656909
   -22.817964724        50.813819918         1.606656909
   -26.077674657        56.459801405         1.606656909
   -29.337384591        62.105782891         1.606656909
   -32.597094524        67.751764378         1.606656909
   -35.856800572        73.397739134         1.606656909
   -39.116510505        79.043720620         1.606656909
   -42.376220439        84.689702107         1.606656909
   -45.635930373        90.335683594         1.606656909
   -48.895640306        95.981665080         1.606656909
   -52.155346354       101.627639836         1.606656909
   -55.415056287       107.273621323         1.606656909
    13.038833812         0.000000000         1.606656909
     9.779124608         5.645980225         1.606656909
     6.519415403        11.291960449         1.606656909
     3.259705955        16.937941094         1.606656909
    -0.000003007        22.583920898         1.606656909
    -3.259711969        28.229900702         1.606656909
    -6.519421903        33.875882189         1.606656909
    -9.779129893        39.521860310         1.606656909
   -13.038839827        45.167841797         1.606656909
   -16.298547818        50.813819918         1.606656909
   -19.558257751        56.459801405         1.606656909
   -22.817967685        62.105782891         1.606656909
   -26.077677618        67.751764378         1.606656909
   -29.337383666        73.397739134         1.606656909
   -32.597093599        79.043720620         1.606656909
   -35.856803533        84.689702107         1.606656909
   -39.116513466        90.335683594         1.606656909
   -42.376223400        95.981665080         1.606656909
   -45.635929447       101.627639836         1.606656909
   -48.895639381       107.273621323         1.606656909
    19.558251204         0.000000000         1.606656909
    16.298541999         5.645980225         1.606656909
    13.038832795        11.291960449         1.606656909
     9.779123347        16.937941094         1.606656909
     6.519414385        22.583920898         1.606656909
     3.259705423        28.229900702         1.606656909
    -0.000004511        33.875882189         1.606656909
    -3.259712501        39.521860310         1.606656909
    -6.519422435        45.167841797         1.606656909
    -9.779130426        50.813819918         1.606656909
   -13.038840359        56.459801405         1.606656909
   -16.298550293        62.105782891         1.606656909
   -19.558260226        67.751764378         1.606656909
   -22.817966274        73.397739134         1.606656909
   -26.077676207        79.043720620         1.606656909
   -29.337386141        84.689702107         1.606656909
   -32.597096074        90.335683594         1.606656909
   -35.856806008        95.981665080         1.606656909
   -39.116512056       101.627639836         1.606656909
   -42.376221989       107.273621323         1.606656909
    26.077667625         0.000000000         1.606656909
    22.817958420         5.645980225         1.606656909
    19.558249215        11.291960449         1.606656909
    16.298539767        16.937941094         1.606656909
    13.038830805        22.583920898         1.606656909
     9.779121843        28.229900702         1.606656909
     6.519411910        33.875882189         1.606656909
     3.259703919        39.521860310         1.606656909
    -0.000006014        45.167841797         1.606656909
    -3.259714005        50.813819918         1.606656909
    -6.519423939        56.459801405         1.606656909
    -9.779133872        62.105782891         1.606656909
   -13.038843806        67.751764378         1.606656909
   -16.298549853        73.397739134         1.606656909
   -19.558259787        79.043720620         1.606656909
   -22.817969720        84.689702107         1.606656909
   -26.077679654        90.335683594         1.606656909
   -29.337389587        95.981665080         1.606656909
   -32.597095635       101.627639836         1.606656909
   -35.856805569       107.273621323         1.606656909
    32.597084045         0.000000000         1.606656909
    29.337374840         5.645980225         1.606656909
    26.077665636        11.291960449         1.606656909
    22.817956188        16.937941094         1.606656909
    19.558247226        22.583920898         1.606656909
    16.298538264        28.229900702         1.606656909
    13.038828330        33.875882189         1.606656909
     9.779120340        39.521860310         1.606656909
     6.519410406        45.167841797         1.606656909
     3.259702415        50.813819918         1.606656909
    -0.000007518        56.459801405         1.606656909
    -3.259717452        62.105782891         1.606656909
    -6.519427385        67.751764378         1.606656909
    -9.779133433        73.397739134         1.606656909
   -13.038843366        79.043720620         1.606656909
   -16.298553300        84.689702107         1.606656909
   -19.558263233        90.335683594         1.606656909
   -22.817973167        95.981665080         1.606656909
   -26.077679215       101.627639836         1.606656909
   -29.337389148       107.273621323         1.606656909
    39.116502409         0.000000000         1.606656909
    35.856793204         5.645980225         1.606656909
    32.597083999        11.291960449         1.606656909
    29.337374551        16.937941094         1.606656909
    26.077665589        22.583920898         1.606656909
    22.817956627        28.229900702         1.606656909
    19.558246694        33.875882189         1.606656909
    16.298538703        39.521860310         1.606656909
    13.038828769        45.167841797         1.606656909
     9.779120779        50.813819918         1.606656909
     6.519410845        56.459801405         1.606656909
     3.259700912        62.105782891         1.606656909
    -0.000009022        67.751764378         1.606656909
    -3.259715069        73.397739134         1.606656909
    -6.519425003        79.043720620         1.606656909
    -9.779134936        84.689702107         1.606656909
   -13.038844870        90.335683594         1.606656909
   -16.298554803        95.981665080         1.606656909
   -19.558260851       101.627639836         1.606656909
   -22.817970785       107.273621323         1.606656909
    45.635916886         0.000000000         1.606656909
    42.376207681         5.645980225         1.606656909
    39.116498477        11.291960449         1.606656909
    35.856789029        16.937941094         1.606656909
    32.597080067        22.583920898         1.606656909
    29.337371105        28.229900702         1.606656909
    26.077661171        33.875882189         1.606656909
    22.817953181        39.521860310         1.606656909
    19.558243247        45.167841797         1.606656909
    16.298535256        50.813819918         1.606656909
    13.038825323        56.459801405         1.606656909
     9.779115389        62.105782891         1.606656909
     6.519405456        67.751764378         1.606656909
     3.259699408        73.397739134         1.606656909
    -0.000010525        79.043720620         1.606656909
    -3.259720459        84.689702107         1.606656909
    -6.519430392        90.335683594         1.606656909
    -9.779140326        95.981665080         1.606656909
   -13.038846374       101.627639836         1.606656909
   -16.298556307       107.273621323         1.606656909
    52.155335250         0.000000000         1.606656909
    48.895626045         5.645980225         1.606656909
    45.635916840        11.291960449         1.606656909
    42.376207392        16.937941094         1.606656909
    39.116498430        22.583920898         1.606656909
    35.856789468        28.229900702         1.606656909
    32.597079535        33.875882189         1.606656909
    29.337371544        39.521860310         1.606656909
    26.077661610        45.167841797         1.606656909
    22.817953620        50.813819918         1.606656909
    19.558243686        56.459801405         1.606656909
    16.298533753        62.105782891         1.606656909
    13.038823819        67.751764378         1.606656909
     9.779117772        73.397739134         1.606656909
     6.519407838        79.043720620         1.606656909
     3.259697905        84.689702107         1.606656909
    -0.000012029        90.335683594         1.606656909
    -3.259721962        95.981665080         1.606656909
    -6.519428010       101.627639836         1.606656909
    -9.779137944       107.273621323         1.606656909
    58.674749727         0.000000000         1.606656909
    55.415040522         5.645980225         1.606656909
    52.155331318        11.291960449         1.606656909
    48.895621870        16.937941094         1.606656909
    45.635912908        22.583920898         1.606656909
    42.376203946        28.229900702         1.606656909
    39.116494012        33.875882189         1.606656909
    35.856786022        39.521860310         1.606656909
    32.597076088        45.167841797         1.606656909
    29.337368097        50.813819918         1.606656909
    26.077658164        56.459801405         1.606656909
    22.817948230        62.105782891         1.606656909
    19.558238297        67.751764378         1.606656909
    16.298532249        73.397739134         1.606656909
    13.038822316        79.043720620         1.606656909
     9.779112382        84.689702107         1.606656909
     6.519402449        90.335683594         1.606656909
     3.259692515        95.981665080         1.606656909
    -0.000013533       101.627639836         1.606656909
    -3.259723466       107.273621323         1.606656909
    65.194168091         0.000000000         1.606656909
    61.934458886         5.645980225         1.606656909
    58.674749681        11.291960449         1.606656909
    55.415040233        16.937941094         1.606656909
    52.155331271        22.583920898         1.606656909
    48.895622309        28.229900702         1.606656909
    45.635912376        33.875882189         1.606656909
    42.376204385        39.521860310         1.606656909
    39.116494451        45.167841797         1.606656909
    35.856786461        50.813819918         1.606656909
    32.597076527        56.459801405         1.606656909
    29.337366594        62.105782891         1.606656909
    26.077656660        67.751764378         1.606656909
    22.817950613        73.397739134         1.606656909
    19.558240679        79.043720620         1.606656909
    16.298530746        84.689702107         1.606656909
    13.038820812        90.335683594         1.606656909
     9.779110879        95.981665080         1.606656909
     6.519404831       101.627639836         1.606656909
     3.259694897       107.273621323         1.606656909
    71.713586454         0.000000000         1.606656909
    68.453877249         5.645980225         1.606656909
    65.194168044        11.291960449         1.606656909
    61.934458597        16.937941094         1.606656909
    58.674749635        22.583920898         1.606656909
    55.415040673        28.229900702         1.606656909
    52.155330739        33.875882189         1.606656909
    48.895622748        39.521860310         1.606656909
    45.635912815        45.167841797         1.606656909
    42.376204824        50.813819918         1.606656909
    39.116494891        56.459801405         1.606656909
    35.856784957        62.105782891         1.606656909
    32.597075024        67.751764378         1.606656909
    29.337368976        73.397739134         1.606656909
    26.077659043        79.043720620         1.606656909
    22.817949109        84.689702107         1.606656909
    19.558239175        90.335683594         1.606656909
    16.298529242        95.981665080         1.606656909
    13.038823194       101.627639836         1.606656909
     9.779113261       107.273621323         1.606656909
    78.233004818         0.000000000         1.606656909
    74.973295613         5.645980225         1.606656909
    71.713586408        11.291960449         1.606656909
    68.453876960        16.937941094         1.606656909
    65.194167998        22.583920898         1.606656909
    61.934459036        28.229900702         1.606656909
    58.674749102        33.875882189         1.606656909
    55.415041112        39.521860310         1.606656909
    52.155331178        45.167841797         1.606656909
    48.895623188        50.813819918         1.606656909
    45.635913254        56.459801405         1.606656909
    42.376203321        62.105782891         1.606656909
    39.116493387        67.751764378         1.606656909
    35.856787340        73.397739134         1.606656909
    32.597077406        79.043720620         1.606656909
    29.337367472        84.689702107         1.606656909
    26.077657539        90.335683594         1.606656909
    22.817947605        95.981665080         1.606656909
    19.558241558       101.627639836         1.606656909
    16.298531624       107.273621323         1.606656909
    84.752415409         0.000000000         1.606656909
    81.492706204         5.645980225         1.606656909
    78.232997000        11.291960449         1.606656909
    74.973287552        16.937941094         1.606656909
    71.713578590        22.583920898         1.606656909
    68.453869628        28.229900702         1.606656909
    65.194159694        33.875882189         1.606656909
    61.934451704        39.521860310         1.606656909
    58.674741770        45.167841797         1.606656909
    55.415033779        50.813819918         1.606656909
    52.155323846        56.459801405         1.606656909
    48.895613912        62.105782891         1.606656909
    45.635903979        67.751764378         1.606656909
    42.376197931        73.397739134         1.606656909
    39.116487998        79.043720620         1.606656909
    35.856778064        84.689702107         1.606656909
    32.597068131        90.335683594         1.606656909
    29.337358197        95.981665080         1.606656909
    26.077652149       101.627639836         1.606656909
    22.817942216       107.273621323         1.606656909
    91.271833773         0.000000000         1.606656909
    88.012124568         5.645980225         1.606656909
    84.752415363        11.291960449         1.606656909
    81.492705915        16.937941094         1.606656909
    78.232996953        22.583920898         1.606656909
    74.973287991        28.229900702         1.606656909
    71.713578058        33.875882189         1.606656909
    68.453870067        39.521860310         1.606656909
    65.194160133        45.167841797         1.606656909
    61.934452143        50.813819918         1.606656909
    58.674742209        56.459801405         1.606656909
    55.415032276        62.105782891         1.606656909
    52.155322342        67.751764378         1.606656909
    48.895616295        73.397739134         1.606656909
    45.635906361        79.043720620         1.606656909
    42.376196428        84.689702107         1.606656909
    39.116486494        90.335683594         1.606656909
    35.856776561        95.981665080         1.606656909
    32.597070513       101.627639836         1.606656909
    29.337360579       107.273621323         1.606656909
    97.791252136         0.000000000         1.606656909
    94.531542931         5.645980225         1.606656909
    91.271833726        11.291960449         1.606656909
    88.012124279        16.937941094         1.606656909
    84.752415317        22.583920898         1.606656909
    81.492706354        28.229900702         1.606656909
    78.232996421        33.875882189         1.606656909
    74.973288430        39.521860310         1.606656909
    71.713578497        45.167841797         1.606656909
    68.453870506        50.813819918         1.606656909
    65.194160573        56.459801405         1.606656909
    61.934450639        62.105782891         1.606656909
    58.674740706        67.751764378         1.606656909
    55.415034658        73.397739134         1.606656909
    52.155324725        79.043720620         1.606656909
    48.895614791        84.689702107         1.606656909
    45.635904857        90.335683594         1.606656909
    42.376194924        95.981665080         1.606656909
    39.116488876       101.627639836         1.606656909
    35.856778943       107.273621323         1.606656909
   104.310670500         0.000000000         1.606656909
   101.050961295         5.645980225         1.606656909
    97.791252090        11.291960449         1.606656909
    94.531542642        16.937941094         1.606656909
    91.271833680        22.583920898         1.606656909
    88.012124718        28.229900702         1.606656909
    84.752414784        33.875882189         1.606656909
    81.492706794        39.521860310         1.606656909
    78.232996860        45.167841797         1.606656909
    74.973288870        50.813819918         1.606656909
    71.713578936        56.459801405         1.606656909
    68.453869003        62.105782891         1.606656909
    65.194159069        67.751764378         1.606656909
    61.934453021        73.397739134         1.606656909
    58.674743088        79.043720620         1.606656909
    55.415033154        84.689702107         1.606656909
    52.155323221        90.335683594         1.606656909
    48.895613287        95.981665080         1.606656909
    45.635907240       101.627639836         1.606656909
    42.376197306       107.273621323         1.606656909
   110.830088863         0.000000000         1.606656909
   107.570379658         5.645980225         1.606656909
   104.310670453        11.291960449         1.606656909
   101.050961005        16.937941094         1.606656909
    97.791252043        22.583920898         1.606656909
    94.531543081        28.229900702         1.606656909
    91.271833148        33.875882189         1.606656909
    88.012125157        39.521860310         1.606656909
    84.752415224        45.167841797         1.606656909
    81.492707233        50.813819918         1.606656909
    78.232997300        56.459801405         1.606656909
    74.973287366        62.105782891         1.606656909
    71.713577433        67.751764378         1.606656909
    68.453871385        73.397739134         1.606656909
    65.194161451        79.043720620         1.606656909
    61.934451518        84.689702107         1.606656909
    58.674741584        90.335683594         1.606656909
    55.415031651        95.981665080         1.606656909
    52.155325603       101.627639836         1.606656909
    48.895615670       107.273621323         1.606656909
   117.349499455         0.000000000         1.606656909
   114.089790250         5.645980225         1.606656909
   110.830081045        11.291960449         1.606656909
   107.570371597        16.937941094         1.606656909
   104.310662635        22.583920898         1.606656909
   101.050953673        28.229900702         1.606656909
    97.791243740        33.875882189         1.606656909
    94.531535749        39.521860310         1.606656909
    91.271825815        45.167841797         1.606656909
    88.012117825        50.813819918         1.606656909
    84.752407891        56.459801405         1.606656909
    81.492697958        62.105782891         1.606656909
    78.232988024        67.751764378         1.606656909
    74.973281977        73.397739134         1.606656909
    71.713572043        79.043720620         1.606656909
    68.453862110        84.689702107         1.606656909
    65.194152176        90.335683594         1.606656909
    61.934442242        95.981665080         1.606656909
    58.674736195       101.627639836         1.606656909
    55.415026261       107.273621323         1.606656909
   123.868917818         0.000000000         1.606656909
   120.609208613         5.645980225         1.606656909
   117.349499408        11.291960449         1.606656909
   114.089789961        16.937941094         1.606656909
   110.830080999        22.583920898         1.606656909
   107.570372036        28.229900702         1.606656909
   104.310662103        33.875882189         1.606656909
   101.050954112        39.521860310         1.606656909
    97.791244179        45.167841797         1.606656909
    94.531536188        50.813819918         1.606656909
    91.271826255        56.459801405         1.606656909
    88.012116321        62.105782891         1.606656909
    84.752406388        67.751764378         1.606656909
    81.492700340        73.397739134         1.606656909
    78.232990407        79.043720620         1.606656909
    74.973280473        84.689702107         1.606656909
    71.713570539        90.335683594         1.606656909
    68.453860606        95.981665080         1.606656909
    65.194154558       101.627639836         1.606656909
    61.934444625       107.273621323         1.606656909
    -1.397018584         4.032843138         1.606656909
    -4.656727789         9.678823362         1.606656909
    -7.916437237        15.324804008         1.606656909
   -11.176146199        20.970783812         1.606656909
   -14.435855161        26.616763615         1.606656909
   -17.695565095        32.262745102         1.606656909
   -20.955273085        37.908723223         1.606656909
   -24.214983019        43.554704710         1.606656909
   -27.474691009        49.200682831         1.606656909
   -30.734400943        54.846664318         1.606656909
   -33.994108933        60.492642439         1.606656909
   -37.253818867        66.138623926         1.606656909
   -40.513528800        71.784605412         1.606656909
   -43.773238734        77.430586899         1.606656909
   -47.032948668        83.076568385         1.606656909
   -50.292654715        88.722543141         1.606656909
   -53.552364649        94.368524628         1.606656909
   -56.812074582       100.014506115         1.606656909
   -60.071784516       105.660487601         1.606656909
   -63.331494449       111.306469088         1.606656909
     5.122398322         4.032843138         1.606656909
     1.862689117         9.678823362         1.606656909
    -1.397020331        15.324804008         1.606656909
    -4.656729293        20.970783812         1.606656909
    -7.916438255        26.616763615         1.606656909
   -11.176148188        32.262745102         1.606656909
   -14.435856179        37.908723223         1.606656909
   -17.695566112        43.554704710         1.606656909
   -20.955274103        49.200682831         1.606656909
   -24.214984037        54.846664318         1.606656909
   -27.474692027        60.492642439         1.606656909
   -30.734401961        66.138623926         1.606656909
   -33.994111894        71.784605412         1.606656909
   -37.253821828        77.430586899         1.606656909
   -40.513531761        83.076568385         1.606656909
   -43.773237809        88.722543141         1.606656909
   -47.032947742        94.368524628         1.606656909
   -50.292657676       100.014506115         1.606656909
   -53.552367610       105.660487601         1.606656909
   -56.812077543       111.306469088         1.606656909
    11.641815228         4.032843138         1.606656909
     8.382106023         9.678823362         1.606656909
     5.122396575        15.324804008         1.606656909
     1.862687613        20.970783812         1.606656909
    -1.397021349        26.616763615         1.606656909
    -4.656731282        32.262745102         1.606656909
    -7.916439273        37.908723223         1.606656909
   -11.176149206        43.554704710         1.606656909
   -14.435857197        49.200682831         1.606656909
   -17.695567130        54.846664318         1.606656909
   -20.955275121        60.492642439         1.606656909
   -24.214985054        66.138623926         1.606656909
   -27.474694988        71.784605412         1.606656909
   -30.734404922        77.430586899         1.606656909
   -33.994114855        83.076568385         1.606656909
   -37.253820903        88.722543141         1.606656909
   -40.513530836        94.368524628         1.606656909
   -43.773240770       100.014506115         1.606656909
   -47.032950703       105.660487601         1.606656909
   -50.292660637       111.306469088         1.606656909
    18.161232620         4.032843138         1.606656909
    14.901523415         9.678823362         1.606656909
    11.641813967        15.324804008         1.606656909
     8.382105005        20.970783812         1.606656909
     5.122396043        26.616763615         1.606656909
     1.862686110        32.262745102         1.606656909
    -1.397021881        37.908723223         1.606656909
    -4.656731814        43.554704710         1.606656909
    -7.916439805        49.200682831         1.606656909
   -11.176149738        54.846664318         1.606656909
   -14.435857729        60.492642439         1.606656909
   -17.695567663        66.138623926         1.606656909
   -20.955277596        71.784605412         1.606656909
   -24.214987530        77.430586899         1.606656909
   -27.474697463        83.076568385         1.606656909
   -30.734403511        88.722543141         1.606656909
   -33.994113444        94.368524628         1.606656909
   -37.253823378       100.014506115         1.606656909
   -40.513533311       105.660487601         1.606656909
   -43.773243245       111.306469088         1.606656909
    24.680649041         4.032843138         1.606656909
    21.420939836         9.678823362         1.606656909
    18.161230388        15.324804008         1.606656909
    14.901521426        20.970783812         1.606656909
    11.641812464        26.616763615         1.606656909
     8.382102530        32.262745102         1.606656909
     5.122394540        37.908723223         1.606656909
     1.862684606        43.554704710         1.606656909
    -1.397023384        49.200682831         1.606656909
    -4.656733318        54.846664318         1.606656909
    -7.916441309        60.492642439         1.606656909
   -11.176151242        66.138623926         1.606656909
   -14.435861176        71.784605412         1.606656909
   -17.695571109        77.430586899         1.606656909
   -20.955281043        83.076568385         1.606656909
   -24.214987090        88.722543141         1.606656909
   -27.474697024        94.368524628         1.606656909
   -30.734406957       100.014506115         1.606656909
   -33.994116891       105.660487601         1.606656909
   -37.253826824       111.306469088         1.606656909
    31.200063518         4.032843138         1.606656909
    27.940354313         9.678823362         1.606656909
    24.680644865        15.324804008         1.606656909
    21.420935903        20.970783812         1.606656909
    18.161226941        26.616763615         1.606656909
    14.901517008        32.262745102         1.606656909
    11.641809017        37.908723223         1.606656909
     8.382099084        43.554704710         1.606656909
     5.122391093        49.200682831         1.606656909
     1.862681160        54.846664318         1.606656909
    -1.397026831        60.492642439         1.606656909
    -4.656736764        66.138623926         1.606656909
    -7.916446698        71.784605412         1.606656909
   -11.176156632        77.430586899         1.606656909
   -14.435866565        83.076568385         1.606656909
   -17.695572613        88.722543141         1.606656909
   -20.955282546        94.368524628         1.606656909
   -24.214992480       100.014506115         1.606656909
   -27.474702413       105.660487601         1.606656909
   -30.734412347       111.306469088         1.606656909
    37.719481882         4.032843138         1.606656909