 C                                      
1.0
      107.4074020386         0.0000000000         0.0000000000
      -53.7037162781        93.0175651489         0.0000000000
        0.0000000000         0.0000000000         6.4244065285
    C
 7600
Cartesian
     0.000000000         0.000000000         1.606101632
    -5.370371819         9.301756859         1.606101632
   -10.740743637        18.603513718         1.606101632
   -16.111116409        27.905269623         1.606101632
   -21.481487274        37.207027435         1.606101632
   -26.851858139        46.508781433         1.606101632
   -32.222232819        55.810539246         1.606101632
   -37.592601776        65.112289429         1.606101632
   -42.962974548        74.414054871         1.606101632
   -48.333343506        83.715805054         1.606101632
    10.740740776         0.000000000         1.606101632
     5.370368958         9.301756859         1.606101632
    -0.000002640        18.603513718         1.606101632
    -5.370374680        27.905269623         1.606101632
   -10.740746498        37.207027435         1.606101632
   -16.111118317        46.508781433         1.606101632
   -21.481491089        55.810539246         1.606101632
   -26.851860046        65.112289429         1.606101632
   -32.222232819        74.414054871         1.606101632
   -37.592601776        83.715805054         1.606101632
    21.481481552         0.000000000         1.606101632
    16.111110687         9.301756859         1.606101632
    10.740737915        18.603513718         1.606101632
     5.370366096        27.905269623         1.606101632
    -0.000005279        37.207027435         1.606101632
    -5.370376587        46.508781433         1.606101632
   -10.740749359        55.810539246         1.606101632
   -16.111118317        65.112289429         1.606101632
   -21.481492996        74.414054871         1.606101632
   -26.851861954        83.715805054         1.606101632
    32.222221375         0.000000000         1.606101632
    26.851850510         9.301756859         1.606101632
    21.481477737        18.603513718         1.606101632
    16.111104965        27.905269623         1.606101632
    10.740734100        37.207027435         1.606101632
     5.370363235        46.508781433         1.606101632
    -0.000009673        55.810539246         1.606101632
    -5.370379448        65.112289429         1.606101632
   -10.740752220        74.414054871         1.606101632
   -16.111122131        83.715805054         1.606101632
    42.962963104         0.000000000         1.606101632
    37.592590332         9.301756859         1.606101632
    32.222221375        18.603513718         1.606101632
    26.851846695        27.905269623         1.606101632
    21.481475830        37.207027435         1.606101632
    16.111104965        46.508781433         1.606101632
    10.740732193        55.810539246         1.606101632
     5.370362282        65.112289429         1.606101632
    -0.000010558        74.414054871         1.606101632
    -5.370380402        83.715805054         1.606101632
    53.703701019         0.000000000         1.606101632
    48.333328247         9.301756859         1.606101632
    42.962959290        18.603513718         1.606101632
    37.592586517        27.905269623         1.606101632
    32.222213745        37.207027435         1.606101632
    26.851842880        46.508781433         1.606101632
    21.481470108        55.810539246         1.606101632
    16.111101151        65.112289429         1.606101632
    10.740727425        74.414054871         1.606101632
     5.370357513        83.715805054         1.606101632
    64.444442749         0.000000000         1.606101632
    59.074069977         9.301756859         1.606101632
    53.703701019        18.603513718         1.606101632
    48.333328247        27.905269623         1.606101632
    42.962955475        37.207027435         1.606101632
    37.592582703        46.508781433         1.606101632
    32.222209930        55.810539246         1.606101632
    26.851842880        65.112289429         1.606101632
    21.481468201        74.414054871         1.606101632
    16.111099243        83.715805054         1.606101632
    75.185180664         0.000000000         1.606101632
    69.814811707         9.301756859         1.606101632
    64.444435120        18.603513718         1.606101632
    59.074066162        27.905269623         1.606101632
    53.703693390        37.207027435         1.606101632
    48.333320618        46.508781433         1.606101632
    42.962947845        55.810539246         1.606101632
    37.592578888        65.112289429         1.606101632
    32.222206116        74.414054871         1.606101632
    26.851837158        83.715805054         1.606101632
    85.925926208         0.000000000         1.606101632
    80.555557251         9.301756859         1.606101632
    75.185180664        18.603513718         1.606101632
    69.814811707        27.905269623         1.606101632
    64.444442749        37.207027435         1.606101632
    59.074066162        46.508781433         1.606101632
    53.703693390        55.810539246         1.606101632
    48.333324432        65.112289429         1.606101632
    42.962951660        74.414054871         1.606101632
    37.592582703        83.715805054         1.606101632
    96.666656494         0.000000000         1.606101632
    91.296287537         9.301756859         1.606101632
    85.925910950        18.603513718         1.606101632
    80.555541992        27.905269623         1.606101632
    75.185173035        37.207027435         1.606101632
    69.814796448        46.508781433         1.606101632
    64.444427490        55.810539246         1.606101632
    59.074054718        65.112289429         1.606101632
    53.703681946        74.414054871         1.606101632
    48.333312988        83.715805054         1.606101632
    -1.413256168         6.364359379         1.606101632
    -6.783628464        15.666116714         1.606101632
   -12.153999329        24.967872620         1.606101632
   -17.524372101        34.269630432         1.606101632
   -22.894742966        43.571384430         1.606101632
   -28.265115738        52.873142242         1.606101632
   -33.635486603        62.174900055         1.606101632
   -39.005859375        71.476654053         1.606101632
   -44.376232147        80.778411865         1.606101632
   -49.746601105        90.080162048         1.606101632
     9.327484131         6.364359379         1.606101632
     3.957112551        15.666116714         1.606101632
    -1.413258791        24.967872620         1.606101632
    -6.783631802        34.269630432         1.606101632
   -12.154001236        43.571384430         1.606101632
   -17.524374008        52.873142242         1.606101632
   -22.894746780        62.174900055         1.606101632
   -28.265117645        71.476654053         1.606101632
   -33.635490417        80.778411865         1.606101632
   -39.005859375        90.080162048         1.606101632
    20.068223953         6.364359379         1.606101632
    14.697852135        15.666116714         1.606101632
     9.327481270        24.967872620         1.606101632
     3.957108021        34.269630432         1.606101632
    -1.413261652        43.571384430         1.606101632
    -6.783634663        52.873142242         1.606101632
   -12.154006958        62.174900055         1.606101632
   -17.524377823        71.476654053         1.606101632
   -22.894750595        80.778411865         1.606101632
   -28.265119553        90.080162048         1.606101632
    30.808963776         6.364359379         1.606101632
    25.438592911        15.666116714         1.606101632
    20.068220139        24.967872620         1.606101632
    14.697848320        34.269630432         1.606101632
     9.327478409        43.571384430         1.606101632
     3.957105398        52.873142242         1.606101632
    -1.413267612        62.174900055         1.606101632
    -6.783637524        71.476654053         1.606101632
   -12.154009819        80.778411865         1.606101632
   -17.524379730        90.080162048         1.606101632
    41.549705505         6.364359379         1.606101632
    36.179332733        15.666116714         1.606101632
    30.808961868        24.967872620         1.606101632
    25.438589096        34.269630432         1.606101632
    20.068220139        43.571384430         1.606101632
    14.697847366        52.873142242         1.606101632
     9.327474594        62.174900055         1.606101632
     3.957104445        71.476654053         1.606101632
    -1.413268447        80.778411865         1.606101632
    -6.783638000        90.080162048         1.606101632
    52.290447235         6.364359379         1.606101632
    46.920074463        15.666116714         1.606101632
    41.549705505        24.967872620         1.606101632
    36.179332733        34.269630432         1.606101632
    30.808961868        43.571384430         1.606101632
    25.438589096        52.873142242         1.606101632
    20.068216324        62.174900055         1.606101632
    14.697846413        71.476654053         1.606101632
     9.327473640        80.778411865         1.606101632
     3.957103491        90.080162048         1.606101632
    63.031192780         6.364359379         1.606101632
    57.660820007        15.666116714         1.606101632
    52.290451050        24.967872620         1.606101632
    46.920078278        34.269630432         1.606101632
    41.549705505        43.571384430         1.606101632
    36.179332733        52.873142242         1.606101632
    30.808961868        62.174900055         1.606101632
    25.438591003        71.476654053         1.606101632
    20.068218231        80.778411865         1.606101632
    14.697849274        90.080162048         1.606101632
    73.771926880         6.364359379         1.606101632
    68.401550293        15.666116714         1.606101632
    63.031181335        24.967872620         1.606101632
    57.660808563        34.269630432         1.606101632
    52.290435791        43.571384430         1.606101632
    46.920063019        52.873142242         1.606101632
    41.549690247        62.174900055         1.606101632
    36.179321289        71.476654053         1.606101632
    30.808948517        80.778411865         1.606101632
    25.438579559        90.080162048         1.606101632
    84.512672424         6.364359379         1.606101632
    79.142295837        15.666116714         1.606101632
    73.771926880        24.967872620         1.606101632
    68.401550293        34.269630432         1.606101632
    63.031181335        43.571384430         1.606101632
    57.660808563        52.873142242         1.606101632
    52.290435791        62.174900055         1.606101632
    46.920066833        71.476654053         1.606101632
    41.549694061        80.778411865         1.606101632
    36.179325104        90.080162048         1.606101632
    95.253410339         6.364359379         1.606101632
    89.883033752        15.666116714         1.606101632
    84.512664795        24.967872620         1.606101632
    79.142288208        34.269630432         1.606101632
    73.771919250        43.571384430         1.606101632
    68.401550293        52.873142242         1.606101632
    63.031173706        62.174900055         1.606101632
    57.660804749        71.476654053         1.606101632
    52.290431976        80.778411865         1.606101632
    46.920063019        90.080162048         1.606101632
    -3.391814232         7.833058357         1.606101632
    -8.762186050        17.134815216         1.606101632
   -14.132557869        26.436571121         1.606101632
   -19.502929688        35.738327026         1.606101632
   -24.873302460        45.040084839         1.606101632
   -30.243671417        54.341838837         1.606101632
   -35.614044189        63.643596649         1.606101632
   -40.984413147        72.945350647         1.606101632
   -46.354785919        82.247108459         1.606101632
   -51.725154877        91.548858643         1.606101632
     7.348926067         7.833058357         1.606101632
     1.978554010        17.134815216         1.606101632
    -3.391817331        26.436571121         1.606101632
    -8.762188911        35.738327026         1.606101632
   -14.132561684        45.040084839         1.606101632
   -19.502931595        54.341838837         1.606101632
   -24.873304367        63.643596649         1.606101632
   -30.243673325        72.945350647         1.606101632
   -35.614048004        82.247108459         1.606101632
   -40.984416962        91.548858643         1.606101632
    18.089666367         7.833058357         1.606101632
    12.719294548        17.134815216         1.606101632
     7.348923683        26.436571121         1.606101632
     1.978552222        35.738327026         1.606101632
    -3.391820669        45.040084839         1.606101632
    -8.762190819        54.341838837         1.606101632
   -14.132563591        63.643596649         1.606101632
   -19.502933502        72.945350647         1.606101632
   -24.873306274        82.247108459         1.606101632
   -30.243675232        91.548858643         1.606101632
    28.830410004         7.833058357         1.606101632
    23.460039139        17.134815216         1.606101632
    18.089666367        26.436571121         1.606101632
    12.719295502        35.738327026         1.606101632
     7.348922729        45.040084839         1.606101632
     1.978553176        54.341838837         1.606101632
    -3.391819715        63.643596649         1.606101632
    -8.762188911        72.945350647         1.606101632
   -14.132562637        82.247108459         1.606101632
   -19.502931595        91.548858643         1.606101632
    39.571147919         7.833058357         1.606101632
    34.200775146        17.134815216         1.606101632
    28.830404282        26.436571121         1.606101632
    23.460033417        35.738327026         1.606101632
    18.089660645        45.040084839         1.606101632
    12.719290733        54.341838837         1.606101632
     7.348918438        63.643596649         1.606101632
     1.978548527        72.945350647         1.606101632
    -3.391824484        82.247108459         1.606101632
    -8.762193680        91.548858643         1.606101632
    50.311885834         7.833058357         1.606101632
    44.941513062        17.134815216         1.606101632
    39.571144104        26.436571121         1.606101632
    34.200771332        35.738327026         1.606101632
    28.830398560        45.040084839         1.606101632
    23.460029602        54.341838837         1.606101632
    18.089656830        63.643596649         1.606101632
    12.719286919        72.945350647         1.606101632
     7.348913670        82.247108459         1.606101632
     1.978543878        91.548858643         1.606101632
    61.052623749         7.833058357         1.606101632
    55.682250977        17.134815216         1.606101632
    50.311882019        26.436571121         1.606101632
    44.941509247        35.738327026         1.606101632
    39.571136475        45.040084839         1.606101632
    34.200767517        54.341838837         1.606101632
    28.830394745        63.643596649         1.606101632
    23.460023880        72.945350647         1.606101632
    18.089651108        82.247108459         1.606101632
    12.719282150        91.548858643         1.606101632
    71.793365479         7.833058357         1.606101632
    66.422988892        17.134815216         1.606101632
    61.052619934        26.436571121         1.606101632
    55.682247162        35.738327026         1.606101632
    50.311874390        45.040084839         1.606101632
    44.941505432        54.341838837         1.606101632
    39.571132660        63.643596649         1.606101632
    34.200763702        72.945350647         1.606101632
    28.830389023        82.247108459         1.606101632
    23.460020065        91.548858643         1.606101632
    82.534111023         7.833058357         1.606101632
    77.163734436        17.134815216         1.606101632
    71.793365479        26.436571121         1.606101632
    66.422996521        35.738327026         1.606101632
    61.052619934        45.040084839         1.606101632
    55.682250977        54.341838837         1.606101632
    50.311878204        63.643596649         1.606101632
    44.941509247        72.945350647         1.606101632
    39.571136475        82.247108459         1.606101632
    34.200763702        91.548858643         1.606101632
    93.274848938         7.833058357         1.606101632
    87.904472351        17.134815216         1.606101632
    82.534103394        26.436571121         1.606101632
    77.163734436        35.738327026         1.606101632
    71.793357849        45.040084839         1.606101632
    66.422988892        54.341838837         1.606101632
    61.052616119        63.643596649         1.606101632
    55.682247162        72.945350647         1.606101632
    50.311874390        82.247108459         1.606101632
    44.941501617        91.548858643         1.606101632
     8.762181282         1.468698382         1.606101632
     3.391810179        10.770454407         1.606101632
    -1.978561997        20.072212219         1.606101632
    -7.348934174        29.373968124         1.606101632
   -12.719305038        38.675724030         1.606101632
   -18.089675903        47.977478027         1.606101632
   -23.460048676        57.279235840         1.606101632
   -28.830417633        66.580986023         1.606101632
   -34.200790405        75.882743835         1.606101632
   -39.571159363        85.184501648         1.606101632
    19.502922058         1.468698382         1.606101632
    14.132551193        10.770454407         1.606101632
     8.762178421        20.072212219         1.606101632
     3.391806602        29.373968124         1.606101632
    -1.978564620        38.675724030         1.606101632
    -7.348934174        47.977478027         1.606101632
   -12.719306946        57.279235840         1.606101632
   -18.089677811        66.580986023         1.606101632
   -23.460050583        75.882743835         1.606101632
   -28.830419540        85.184501648         1.606101632
    30.243661880         1.468698382         1.606101632
    24.873291016        10.770454407         1.606101632
    19.502918243        20.072212219         1.606101632
    14.132546425        29.373968124         1.606101632
     8.762175560        38.675724030         1.606101632
     3.391805410        47.977478027         1.606101632
    -1.978567481        57.279235840         1.606101632
    -7.348937035        66.580986023         1.606101632
   -12.719309807        75.882743835         1.606101632
   -18.089679718        85.184501648         1.606101632
    40.984401703         1.468698382         1.606101632
    35.614028931        10.770454407         1.606101632
    30.243658066        20.072212219         1.606101632
    24.873287201        29.373968124         1.606101632
    19.502914429        38.675724030         1.606101632
    14.132545471        47.977478027         1.606101632
     8.762172699        57.279235840         1.606101632
     3.391802549        66.580986023         1.606101632
    -1.978570223        75.882743835         1.606101632
    -7.348939896        85.184501648         1.606101632
    51.725143433         1.468698382         1.606101632
    46.354770660        10.770454407         1.606101632
    40.984401703        20.072212219         1.606101632
    35.614028931        29.373968124         1.606101632
    30.243656158        38.675724030         1.606101632
    24.873287201        47.977478027         1.606101632
    19.502914429        57.279235840         1.606101632
    14.132544518        66.580986023         1.606101632
     8.762171745        75.882743835         1.606101632
     3.391801834        85.184501648         1.606101632
    62.465881348         1.468698382         1.606101632
    57.095508575        10.770454407         1.606101632
    51.725139618        20.072212219         1.606101632
    46.354766846        29.373968124         1.606101632
    40.984394073        38.675724030         1.606101632
    35.614025116        47.977478027         1.606101632
    30.243652344        57.279235840         1.606101632
    24.873281479        66.580986023         1.606101632
    19.502908707        75.882743835         1.606101632
    14.132539749        85.184501648         1.606101632
    73.206626892         1.468698382         1.606101632
    67.836257935        10.770454407         1.606101632
    62.465885162        20.072212219         1.606101632
    57.095512390        29.373968124         1.606101632
    51.725139618        38.675724030         1.606101632
    46.354770660        47.977478027         1.606101632
    40.984397888        57.279235840         1.606101632
    35.614028931        66.580986023         1.606101632
    30.243654251        75.882743835         1.606101632
    24.873285294        85.184501648         1.606101632
    83.947357178         1.468698382         1.606101632
    78.576988220        10.770454407         1.606101632
    73.206611633        20.072212219         1.606101632
    67.836242676        29.373968124         1.606101632
    62.465869904        38.675724030         1.606101632
    57.095500946        47.977478027         1.606101632
    51.725128174        57.279235840         1.606101632
    46.354759216        66.580986023         1.606101632
    40.984386444        75.882743835         1.606101632
    35.614013672        85.184501648         1.606101632
    94.688102722         1.468698382         1.606101632
    89.317733765        10.770454407         1.606101632
    83.947357178        20.072212219         1.606101632
    78.576988220        29.373968124         1.606101632
    73.206619263        38.675724030         1.606101632
    67.836242676        47.977478027         1.606101632
    62.465873718        57.279235840         1.606101632
    57.095504761        66.580986023         1.606101632
    51.725131989        75.882743835         1.606101632
    46.354759216        85.184501648         1.606101632
   105.428840637         1.468698382         1.606101632
   100.058471680        10.770454407         1.606101632
    94.688095093        20.072212219         1.606101632
    89.317726135        29.373968124         1.606101632
    83.947357178        38.675724030         1.606101632
    78.576980591        47.977478027         1.606101632
    73.206611633        57.279235840         1.606101632
    67.836242676        66.580986023         1.606101632
    62.465869904        75.882743835         1.606101632
    57.095497131        85.184501648         1.606101632
     6.783625603         2.937396765         1.606101632
     1.413253546        12.239153862         1.606101632
    -3.957117796        21.540908813         1.606101632
    -9.327490807        30.842668533         1.606101632
   -14.697861671        40.144424438         1.606101632
   -20.068233490        49.446178436         1.606101632
   -25.438606262        58.747936249         1.606101632
   -30.808975220        68.049690247         1.606101632
   -36.179347992        77.351448059         1.606101632
   -41.549716949        86.653205872         1.606101632
    17.524364471         2.937396765         1.606101632
    12.153993607        12.239153862         1.606101632
     6.783622265        21.540908813         1.606101632
     1.413249135        30.842668533         1.606101632
    -3.957122087        40.144424438         1.606101632
    -9.327493668        49.446178436         1.606101632
   -14.697866440        58.747936249         1.606101632
   -20.068235397        68.049690247         1.606101632
   -25.438608170        77.351448059         1.606101632
   -30.808979034        86.653205872         1.606101632
    28.265106201         2.937396765         1.606101632
    22.894735336        12.239153862         1.606101632
    17.524364471        21.540908813         1.606101632
    12.153990746        30.842668533         1.606101632
     6.783619404        40.144424438         1.606101632
     1.413248301        49.446178436         1.606101632
    -3.957124710        58.747936249         1.606101632
    -9.327494621        68.049690247         1.606101632
   -14.697867393        77.351448059         1.606101632
   -20.068237305        86.653205872         1.606101632
    39.005844116         2.937396765         1.606101632
    33.635471344        12.239153862         1.606101632
    28.265102386        21.540908813         1.606101632
    22.894729614        30.842668533         1.606101632
    17.524356842        40.144424438         1.606101632
    12.153985977        49.446178436         1.606101632
     6.783613205        58.747936249         1.606101632
     1.413243532        68.049690247         1.606101632
    -3.957129240        77.351448059         1.606101632
    -9.327499390        86.653205872         1.606101632
    49.746585846         2.937396765         1.606101632
    44.376213074        12.239153862         1.606101632
    39.005844116        21.540908813         1.606101632
    33.635471344        30.842668533         1.606101632
    28.265098572        40.144424438         1.606101632
    22.894727707        49.446178436         1.606101632
    17.524354935        58.747936249         1.606101632
    12.153985023        68.049690247         1.606101632
     6.783612251        77.351448059         1.606101632
     1.413242698        86.653205872         1.606101632
    60.487323761         2.937396765         1.606101632
    55.116950989        12.239153862         1.606101632
    49.746582031        21.540908813         1.606101632
    44.376209259        30.842668533         1.606101632
    39.005836487        40.144424438         1.606101632
    33.635467529        49.446178436         1.606101632
    28.265092850        58.747936249         1.606101632
    22.894723892        68.049690247         1.606101632
    17.524351120        77.351448059         1.606101632
    12.153980255        86.653205872         1.606101632
    71.228065491         2.937396765         1.606101632
    65.857696533        12.239153862         1.606101632
    60.487323761        21.540908813         1.606101632
    55.116950989        30.842668533         1.606101632
    49.746578217        40.144424438         1.606101632
    44.376209259        49.446178436         1.606101632
    39.005836487        58.747936249         1.606101632
    33.635463715        68.049690247         1.606101632
    28.265092850        77.351448059         1.606101632
    22.894721985        86.653205872         1.606101632
    81.968803406         2.937396765         1.606101632
    76.598434448        12.239153862         1.606101632
    71.228057861        21.540908813         1.606101632
    65.857688904        30.842668533         1.606101632
    60.487316132        40.144424438         1.606101632
    55.116947174        49.446178436         1.606101632
    49.746574402        58.747936249         1.606101632
    44.376201630        68.049690247         1.606101632
    39.005828857        77.351448059         1.606101632
    33.635459900        86.653205872         1.606101632
    92.709548950         2.937396765         1.606101632
    87.339179993        12.239153862         1.606101632
    81.968803406        21.540908813         1.606101632
    76.598434448        30.842668533         1.606101632
    71.228065491        40.144424438         1.606101632
    65.857688904        49.446178436         1.606101632
    60.487319946        58.747936249         1.606101632
    55.116947174        68.049690247         1.606101632
    49.746574402        77.351448059         1.606101632
    44.376205444        86.653205872         1.606101632
   103.450286865         2.937396765         1.606101632
    98.079917908        12.239153862         1.606101632
    92.709541321        21.540908813         1.606101632
    87.339172363        30.842668533         1.606101632
    81.968803406        40.144424438         1.606101632
    76.598426819        49.446178436         1.606101632
    71.228057861        58.747936249         1.606101632
    65.857688904        68.049690247         1.606101632
    60.487312317        77.351448059         1.606101632
    55.116943359        86.653205872         1.606101632
     4.805067062         4.406095028         1.606101632
    -0.565304935        13.707852364         1.606101632
    -5.935676098        23.009607315         1.606101632
   -11.306047440        32.311363220         1.606101632
   -16.676420212        41.613121033         1.606101632
   -22.046791077        50.914875031         1.606101632
   -27.417163849        60.216632843         1.606101632
   -32.787532806        69.518386841         1.606101632
   -38.157905579        78.820144653         1.606101632
   -43.528274536        88.121894836         1.606101632
    15.545807838         4.406095028         1.606101632
    10.175436020        13.707852364         1.606101632
     4.805064678        23.009607315         1.606101632
    -0.565306783        32.311363220         1.606101632
    -5.935679436        41.613121033         1.606101632
   -11.306049347        50.914875031         1.606101632
   -16.676422119        60.216632843         1.606101632
   -22.046791077        69.518386841         1.606101632
   -27.417165756        78.820144653         1.606101632
   -32.787532806        88.121894836         1.606101632
    26.286548615         4.406095028         1.606101632