 C                                      
   1.00000000000000     
    10.7407435520073076    0.0000000000000000    0.0000000000000000
    -5.3703717759536538    9.3017567715306981    0.0000000000000000
     0.0000000000000000    0.0000000000000000    6.4244065443657110
   C 
    76
Direct
  0.0000000000000000  0.0000000000000000  0.2500000000000000
  0.2105263170000029  0.6842105389999986  0.2500000000000000
  0.1052631590000033  0.8421052690000010  0.2500000000000000
  0.8947368259999990  0.1578947309999990  0.2500000000000000
  0.7894737120000030  0.3157894610000014  0.2500000000000000
  0.6842105389999986  0.4736842220000028  0.2500000000000000
  0.5789473649999977  0.6315789220000028  0.2500000000000000
  0.4736842220000028  0.7894737120000030  0.2500000000000000
  0.3684210480000019  0.9473684430000020  0.2500000000000000
  0.2631579040000034  0.1052631590000033  0.2500000000000000
  0.1578947309999990  0.2631579040000034  0.2500000000000000
  0.0526315789999998  0.4210526350000023  0.2500000000000000
  0.9473684430000020  0.5789473649999977  0.2500000000000000
  0.8421052690000010  0.7368420959999966  0.2500000000000000
  0.7368420959999966  0.8947368259999990  0.2500000000000000
  0.6315789220000028  0.0526315789999998  0.2500000000000000
  0.5263158079999997  0.2105263170000029  0.2500000000000000
  0.4210526350000023  0.3684210480000019  0.2500000000000000
  0.3157894610000014  0.5263158079999997  0.2500000000000000
  0.0000000000000000  0.0000000000000000  0.7500000000000000
  0.2105263170000029  0.6842105389999986  0.7500000000000000
  0.1052631590000033  0.8421052690000010  0.7500000000000000
  0.8947368259999990  0.1578947309999990  0.7500000000000000
  0.7894737120000030  0.3157894610000014  0.7500000000000000
  0.6842105389999986  0.4736842220000028  0.7500000000000000
  0.5789473649999977  0.6315789220000028  0.7500000000000000
  0.4736842220000028  0.7894737120000030  0.7500000000000000
  0.3684210480000019  0.9473684430000020  0.7500000000000000
  0.2631579040000034  0.1052631590000033  0.7500000000000000
  0.1578947309999990  0.2631579040000034  0.7500000000000000
  0.0526315789999998  0.4210526350000023  0.7500000000000000
  0.9473684430000020  0.5789473649999977  0.7500000000000000
  0.8421052690000010  0.7368420959999966  0.7500000000000000
  0.7368420959999966  0.8947368259999990  0.7500000000000000
  0.6315789220000028  0.0526315789999998  0.7500000000000000
  0.5263158079999997  0.2105263170000029  0.7500000000000000
  0.4210526350000023  0.3684210480000019  0.7500000000000000
  0.3157894610000014  0.5263158079999997  0.7500000000000000
  0.0175438600000035  0.1403508779999996  0.2500000000000000
  0.2280701700000023  0.8245614169999982  0.2500000000000000
  0.1228070180000032  0.9824561479999971  0.2500000000000000
  0.9122806789999984  0.2982456089999985  0.2500000000000000
  0.8070175650000024  0.4561403390000009  0.2500000000000000
  0.7017543910000015  0.6140350699999999  0.2500000000000000
  0.5964912179999970  0.7719298009999989  0.2500000000000000
  0.4912280739999986  0.9298245909999991  0.2500000000000000
  0.3859648999999976  0.0877192989999998  0.2500000000000000
  0.2807017559999991  0.2456140370000028  0.2500000000000000
  0.1754385979999995  0.4035087820000030  0.2500000000000000
  0.0701754390000033  0.5614035130000019  0.2500000000000000
  0.9649122949999978  0.7192982440000009  0.2500000000000000
  0.8596491220000004  0.8771929740000033  0.2500000000000000
  0.7543859479999995  0.0350877199999999  0.2500000000000000
  0.6491228339999964  0.1929824500000024  0.2500000000000000
  0.5438596609999991  0.3508771959999990  0.2500000000000000
  0.4385964869999981  0.5087719559999968  0.2500000000000000
  0.3333333429999996  0.6666666870000029  0.2500000000000000
  0.1403508779999996  0.1228070180000032  0.7500000000000000
  0.3508771959999990  0.8070175650000024  0.7500000000000000
  0.2456140370000028  0.9649122949999978  0.7500000000000000
  0.0350877199999999  0.2807017559999991  0.7500000000000000
  0.9298245909999991  0.4385964869999981  0.7500000000000000
  0.8245614169999982  0.5964912179999970  0.7500000000000000
  0.7192982440000009  0.7543859479999995  0.7500000000000000
  0.6140350699999999  0.9122806789999984  0.7500000000000000
  0.5087719559999968  0.0701754390000033  0.7500000000000000
  0.4035087820000030  0.2280701700000023  0.7500000000000000
  0.2982456089999985  0.3859648999999976  0.7500000000000000
  0.1929824500000024  0.5438596609999991  0.7500000000000000
  0.0877192989999998  0.7017543910000015  0.7500000000000000
  0.9824561479999971  0.8596491220000004  0.7500000000000000
  0.8771929740000033  0.0175438600000035  0.7500000000000000
  0.7719298009999989  0.1754385979999995  0.7500000000000000
  0.6666666870000029  0.3333333429999996  0.7500000000000000
  0.5614035130000019  0.4912280739999986  0.7500000000000000
  0.4561403390000009  0.6491228340000035  0.7500000000000000
 
  0.00000000E+00  0.00000000E+00  0.00000000E+00
  0.00000000E+00  0.00000000E+00  0.00000000E+00
  0.00000000E+00  0.00000000E+00  0.00000000E+00
  0.00000000E+00  0.00000000E+00  0.00000000E+00
  0.00000000E+00  0.00000000E+00  0.00000000E+00
  0.00000000E+00  0.00000000E+00  0.00000000E+00
  0.00000000E+00  0.00000000E+00  0.00000000E+00
  0.00000000E+00  0.00000000E+00  0.00000000E+00
  0.00000000E+00  0.00000000E+00  0.00000000E+00
  0.00000000E+00  0.00000000E+00  0.00000000E+00
  0.00000000E+00  0.00000000E+00  0.00000000E+00
  0.00000000E+00  0.00000000E+00  0.00000000E+00
  0.00000000E+00  0.00000000E+00  0.00000000E+00
  0.00000000E+00  0.00000000E+00  0.00000000E+00
  0.00000000E+00  0.00000000E+00  0.00000000E+00
  0.00000000E+00  0.00000000E+00  0.00000000E+00
  0.00000000E+00  0.00000000E+00  0.00000000E+00
  0.00000000E+00  0.00000000E+00  0.00000000E+00
  0.00000000E+00  0.00000000E+00  0.00000000E+00
  0.00000000E+00  0.00000000E+00  0.00000000E+00
  0.00000000E+00  0.00000000E+00  0.00000000E+00
  0.00000000E+00  0.00000000E+00  0.00000000E+00
  0.00000000E+00  0.00000000E+00  0.00000000E+00
  0.00000000E+00  0.00000000E+00  0.00000000E+00
  0.00000000E+00  0.00000000E+00  0.00000000E+00
  0.00000000E+00  0.00000000E+00  0.00000000E+00
  0.00000000E+00  0.00000000E+00  0.00000000E+00
  0.00000000E+00  0.00000000E+00  0.00000000E+00
  0.00000000E+00  0.00000000E+00  0.00000000E+00
  0.00000000E+00  0.00000000E+00  0.00000000E+00
  0.00000000E+00  0.00000000E+00  0.00000000E+00
  0.00000000E+00  0.00000000E+00  0.00000000E+00
  0.00000000E+00  0.00000000E+00  0.00000000E+00
  0.00000000E+00  0.00000000E+00  0.00000000E+00
  0.00000000E+00  0.00000000E+00  0.00000000E+00
  0.00000000E+00  0.00000000E+00  0.00000000E+00
  0.00000000E+00  0.00000000E+00  0.00000000E+00
  0.00000000E+00  0.00000000E+00  0.00000000E+00
  0.00000000E+00  0.00000000E+00  0.00000000E+00
  0.00000000E+00  0.00000000E+00  0.00000000E+00
  0.00000000E+00  0.00000000E+00  0.00000000E+00
  0.00000000E+00  0.00000000E+00  0.00000000E+00
  0.00000000E+00  0.00000000E+00  0.00000000E+00
  0.00000000E+00  0.00000000E+00  0.00000000E+00
  0.00000000E+00  0.00000000E+00  0.00000000E+00
  0.00000000E+00  0.00000000E+00  0.00000000E+00
  0.00000000E+00  0.00000000E+00  0.00000000E+00
  0.00000000E+00  0.00000000E+00  0.00000000E+00
  0.00000000E+00  0.00000000E+00  0.00000000E+00
  0.00000000E+00  0.00000000E+00  0.00000000E+00
  0.00000000E+00  0.00000000E+00  0.00000000E+00
  0.00000000E+00  0.00000000E+00  0.00000000E+00
  0.00000000E+00  0.00000000E+00  0.00000000E+00
  0.00000000E+00  0.00000000E+00  0.00000000E+00
  0.00000000E+00  0.00000000E+00  0.00000000E+00
  0.00000000E+00  0.00000000E+00  0.00000000E+00
  0.00000000E+00  0.00000000E+00  0.00000000E+00
  0.00000000E+00  0.00000000E+00  0.00000000E+00
  0.00000000E+00  0.00000000E+00  0.00000000E+00
  0.00000000E+00  0.00000000E+00  0.00000000E+00
  0.00000000E+00  0.00000000E+00  0.00000000E+00
  0.00000000E+00  0.00000000E+00  0.00000000E+00
  0.00000000E+00  0.00000000E+00  0.00000000E+00
  0.00000000E+00  0.00000000E+00  0.00000000E+00
  0.00000000E+00  0.00000000E+00  0.00000000E+00
  0.00000000E+00  0.00000000E+00  0.00000000E+00
  0.00000000E+00  0.00000000E+00  0.00000000E+00
  0.00000000E+00  0.00000000E+00  0.00000000E+00
  0.00000000E+00  0.00000000E+00  0.00000000E+00
  0.00000000E+00  0.00000000E+00  0.00000000E+00
  0.00000000E+00  0.00000000E+00  0.00000000E+00
  0.00000000E+00  0.00000000E+00  0.00000000E+00
  0.00000000E+00  0.00000000E+00  0.00000000E+00
  0.00000000E+00  0.00000000E+00  0.00000000E+00
  0.00000000E+00  0.00000000E+00  0.00000000E+00
  0.00000000E+00  0.00000000E+00  0.00000000E+00
