 C                                      
1.0
       65.1941986084         0.0000000000         0.0000000000
      -32.5970915635        56.4598014047         0.0000000000
        0.0000000000         0.0000000000         6.4266276360
    C
 2800
Cartesian
     0.000000000         0.000000000         1.606656909
    -3.259709120         5.645980358         1.606656909
    -6.519418240        11.291960716         1.606656909
    -9.779128075        16.937940598         1.606656909
   -13.038836479        22.583921432         1.606656909
   -16.298545837        28.229900360         1.606656909
   -19.558256149        33.875881195         1.606656909
   -22.817964554        39.521858215         1.606656909
   -26.077672958        45.167842865         1.606656909
   -29.337381363        50.813819885         1.606656909
     6.519420147         0.000000000         1.606656909
     3.259711027         5.645980358         1.606656909
     0.000001715        11.291960716         1.606656909
    -3.259707689        16.937940598         1.606656909
    -6.519416809        22.583921432         1.606656909
    -9.779125214        28.229900360         1.606656909
   -13.038835526        33.875881195         1.606656909
   -16.298543930        39.521858215         1.606656909
   -19.558254242        45.167842865         1.606656909
   -22.817960739        50.813819885         1.606656909
    13.038840294         0.000000000         1.606656909
     9.779130936         5.645980358         1.606656909
     6.519422054        11.291960716         1.606656909
     3.259712458        16.937940598         1.606656909
     0.000003430        22.583921432         1.606656909
    -3.259705544        28.229900360         1.606656909
    -6.519415379        33.875881195         1.606656909
    -9.779123306        39.521858215         1.606656909
   -13.038833618        45.167842865         1.606656909
   -16.298542023        50.813819885         1.606656909
    19.558259964         0.000000000         1.606656909
    16.298551559         5.645980358         1.606656909
    13.038841248        11.291960716         1.606656909
     9.779131889        16.937940598         1.606656909
     6.519423008        22.583921432         1.606656909
     3.259714127        28.229900360         1.606656909
     0.000004182        33.875881195         1.606656909
    -3.259703875        39.521858215         1.606656909
    -6.519413948        45.167842865         1.606656909
    -9.779121399        50.813819885         1.606656909
    26.077680588         0.000000000         1.606656909
    22.817972183         5.645980358         1.606656909
    19.558261871        11.291960716         1.606656909
    16.298553467        16.937940598         1.606656909
    13.038844109        22.583921432         1.606656909
     9.779134750        28.229900360         1.606656909
     6.519424915        33.875881195         1.606656909
     3.259716749        39.521858215         1.606656909
     0.000006859        45.167842865         1.606656909
    -3.259701252        50.813819885         1.606656909
    32.597099304         0.000000000         1.606656909
    29.337390900         5.645980358         1.606656909
    26.077680588        11.291960716         1.606656909
    22.817972183        16.937940598         1.606656909
    19.558261871        22.583921432         1.606656909
    16.298553467        28.229900360         1.606656909
    13.038843155        33.875881195         1.606656909
     9.779135704        39.521858215         1.606656909
     6.519425392        45.167842865         1.606656909
     3.259717464        50.813819885         1.606656909
    39.116519928         0.000000000         1.606656909
    35.856811523         5.645980358         1.606656909
    32.597103119        11.291960716         1.606656909
    29.337392807        16.937940598         1.606656909
    26.077682495        22.583921432         1.606656909
    22.817974091        28.229900360         1.606656909
    19.558263779        33.875881195         1.606656909
    16.298555374        39.521858215         1.606656909
    13.038846016        45.167842865         1.606656909
     9.779138565        50.813819885         1.606656909
    45.635936737         0.000000000         1.606656909
    42.376228333         5.645980358         1.606656909
    39.116519928        11.291960716         1.606656909
    35.856807709        16.937940598         1.606656909
    32.597099304        22.583921432         1.606656909
    29.337390900        28.229900360         1.606656909
    26.077680588        33.875881195         1.606656909
    22.817972183        39.521858215         1.606656909
    19.558263779        45.167842865         1.606656909
    16.298555374        50.813819885         1.606656909
    52.155361176         0.000000000         1.606656909
    48.895652771         5.645980358         1.606656909
    45.635944366        11.291960716         1.606656909
    42.376232147        16.937940598         1.606656909
    39.116523743        22.583921432         1.606656909
    35.856815338        28.229900360         1.606656909
    32.597106934        33.875881195         1.606656909
    29.337396622        39.521858215         1.606656909
    26.077688217        45.167842865         1.606656909
    22.817979813        50.813819885         1.606656909
    58.674777985         0.000000000         1.606656909
    55.415069580         5.645980358         1.606656909
    52.155361176        11.291960716         1.606656909
    48.895648956        16.937940598         1.606656909
    45.635940552        22.583921432         1.606656909
    42.376232147        28.229900360         1.606656909
    39.116523743        33.875881195         1.606656909
    35.856815338        39.521858215         1.606656909
    32.597103119        45.167842865         1.606656909
    29.337396622        50.813819885         1.606656909
    -1.397018075         4.032843113         1.606656909
    -4.656727314         9.678823471         1.606656909
    -7.916436672        15.324803352         1.606656909
   -11.176145554        20.970783234         1.606656909
   -14.435854912        26.616764069         1.606656909
   -17.695564270        32.262744904         1.606656909
   -20.955274582        37.908725739         1.606656909
   -24.214982986        43.554702759         1.606656909
   -27.474693298        49.200687408         1.606656909
   -30.734399796        54.846664429         1.606656909
     5.122401714         4.032843113         1.606656909
     1.862692595         9.678823471         1.606656909
    -1.397016883        15.324803352         1.606656909
    -4.656725883        20.970783234         1.606656909
    -7.916434765        26.616764069         1.606656909
   -11.176144600        32.262744904         1.606656909
   -14.435854912        37.908725739         1.606656909
   -17.695562363        43.554702759         1.606656909
   -20.955272675        49.200687408         1.606656909
   -24.214981079        54.846664429         1.606656909
    11.641821861         4.032843113         1.606656909
     8.382112503         9.678823471         1.606656909
     5.122402668        15.324803352         1.606656909
     1.862693787        20.970783234         1.606656909
    -1.397015095        26.616764069         1.606656909
    -4.656724930        32.262744904         1.606656909
    -7.916435242        37.908725739         1.606656909
   -11.176142693        43.554702759         1.606656909
   -14.435853004        49.200687408         1.606656909
   -17.695560455        54.846664429         1.606656909
    18.161243439         4.032843113         1.606656909
    14.901534081         9.678823471         1.606656909
    11.641824722        15.324803352         1.606656909
     8.382115364        20.970783234         1.606656909
     5.122406483        26.616764069         1.606656909
     1.862696528        32.262744904         1.606656909
    -1.397013426        37.908725739         1.606656909
    -4.656721592        43.554702759         1.606656909
    -7.916431427        49.200687408         1.606656909
   -11.176139832        54.846664429         1.606656909
    24.680662155         4.032843113         1.606656909
    21.420951843         9.678823471         1.606656909
    18.161243439        15.324803352         1.606656909
    14.901534081        20.970783234         1.606656909
    11.641824722        26.616764069         1.606656909
     8.382115364        32.262744904         1.606656909
     5.122405052        37.908725739         1.606656909
     1.862697244        43.554702759         1.606656909
    -1.397012711        49.200687408         1.606656909
    -4.656720638        54.846664429         1.606656909
    31.200082779         4.032843113         1.606656909
    27.940372467         9.678823471         1.606656909
    24.680664062        15.324803352         1.606656909
    21.420955658        20.970783234         1.606656909
    18.161245346        26.616764069         1.606656909
    14.901535988        32.262744904         1.606656909
    11.641825676        37.908725739         1.606656909
     8.382118225        43.554702759         1.606656909
     5.122407913        49.200687408         1.606656909
     1.862699986        54.846664429         1.606656909
    37.719501495         4.032843113         1.606656909
    34.459793091         9.678823471         1.606656909
    31.200084686        15.324803352         1.606656909
    27.940376282        20.970783234         1.606656909
    24.680665970        26.616764069         1.606656909
    21.420955658        32.262744904         1.606656909
    18.161247253        37.908725739         1.606656909
    14.901538849        43.554702759         1.606656909
    11.641828537        49.200687408         1.606656909
     8.382120132        54.846664429         1.606656909
    44.238922119         4.032843113         1.606656909
    40.979213715         9.678823471         1.606656909
    37.719505310        15.324803352         1.606656909
    34.459796906        20.970783234         1.606656909
    31.200086594        26.616764069         1.606656909
    27.940376282        32.262744904         1.606656909
    24.680667877        37.908725739         1.606656909
    21.420959473        43.554702759         1.606656909
    18.161249161        49.200687408         1.606656909
    14.901540756        54.846664429         1.606656909
    50.758342743         4.032843113         1.606656909
    47.498634338         9.678823471         1.606656909
    44.238925934        15.324803352         1.606656909
    40.979217529        20.970783234         1.606656909
    37.719509125        26.616764069         1.606656909
    34.459796906        32.262744904         1.606656909
    31.200088501        37.908725739         1.606656909
    27.940380096        43.554702759         1.606656909
    24.680669785        49.200687408         1.606656909
    21.420961380        54.846664429         1.606656909
    57.277759552         4.032843113         1.606656909
    54.018051147         9.678823471         1.606656909
    50.758342743        15.324803352         1.606656909
    47.498634338        20.970783234         1.606656909
    44.238925934        26.616764069         1.606656909
    40.979213715        32.262744904         1.606656909
    37.719505310        37.908725739         1.606656909
    34.459796906        43.554702759         1.606656909
    31.200086594        49.200687408         1.606656909
    27.940378189        54.846664429         1.606656909
     4.656728745         1.613137245         1.606656909
     1.397019386         7.259117603         1.606656909
    -1.862689614        12.905097008         1.606656909
    -5.122399330        18.551078796         1.606656909
    -8.382107735        24.197057724         1.606656909
   -11.641817093        29.843036652         1.606656909
   -14.901527405        35.489017487         1.606656909
   -18.161235809        41.134998322         1.606656909
   -21.420944214        46.780979156         1.606656909
   -24.680652618        52.426956177         1.606656909
    11.176148415         1.613137245         1.606656909
     7.916439533         7.259117603         1.606656909
     4.656730652        12.905097008         1.606656909
     1.397021055        18.551078796         1.606656909
    -1.862687945        24.197057724         1.606656909
    -5.122396946        29.843036652         1.606656909
    -8.382106781        35.489017487         1.606656909
   -11.641815186        41.134998322         1.606656909
   -14.901524544        46.780979156         1.606656909
   -18.161231995        52.426956177         1.606656909
    17.695569992         1.613137245         1.606656909
    14.435859680         7.259117603         1.606656909
    11.176151276        12.905097008         1.606656909
     7.916441441        18.551078796         1.606656909
     4.656732559        24.197057724         1.606656909
     1.397023678        29.843036652         1.606656909
    -1.862686276        35.489017487         1.606656909
    -5.122394085        41.134998322         1.606656909
    -8.382103920        46.780979156         1.606656909
   -11.641812325        52.426956177         1.606656909
    24.214988708         1.613137245         1.606656909
    20.955278397         7.259117603         1.606656909
    17.695569992        12.905097008         1.606656909
    14.435860634        18.551078796         1.606656909
    11.176151276        24.197057724         1.606656909
     7.916442394        29.843036652         1.606656909
     4.656732559        35.489017487         1.606656909
     1.397024512        41.134998322         1.606656909
    -1.862685442        46.780979156         1.606656909
    -5.122393608        52.426956177         1.606656909
    30.734409332         1.613137245         1.606656909
    27.474699020         7.259117603         1.606656909
    24.214990616        12.905097008         1.606656909
    20.955280304        18.551078796         1.606656909
    17.695571899        24.197057724         1.606656909
    14.435863495        29.843036652         1.606656909
    11.176153183        35.489017487         1.606656909
     7.916445255        41.134998322         1.606656909
     4.656734943        46.780979156         1.606656909
     1.397027135        52.426956177         1.606656909
    37.253826141         1.613137245         1.606656909
    33.994117737         7.259117603         1.606656909
    30.734409332        12.905097008         1.606656909
    27.474699020        18.551078796         1.606656909
    24.214990616        24.197057724         1.606656909
    20.955282211        29.843036652         1.606656909
    17.695571899        35.489017487         1.606656909
    14.435863495        41.134998322         1.606656909
    11.176154137        46.780979156         1.606656909
     7.916445732        52.426956177         1.606656909
    43.773246765         1.613137245         1.606656909
    40.513538361         7.259117603         1.606656909
    37.253829956        12.905097008         1.606656909
    33.994121552        18.551078796         1.606656909
    30.734411240        24.197057724         1.606656909
    27.474702835        29.843036652         1.606656909
    24.214992523        35.489017487         1.606656909
    20.955284119        41.134998322         1.606656909
    17.695573807        46.780979156         1.606656909
    14.435866356        52.426956177         1.606656909
    50.292663574         1.613137245         1.606656909
    47.032955170         7.259117603         1.606656909
    43.773246765        12.905097008         1.606656909
    40.513538361        18.551078796         1.606656909
    37.253829956        24.197057724         1.606656909
    33.994117737        29.843036652         1.606656909
    30.734409332        35.489017487         1.606656909
    27.474700928        41.134998322         1.606656909
    24.214990616        46.780979156         1.606656909
    20.955284119        52.426956177         1.606656909
    56.812088013         1.613137245         1.606656909
    53.552379608         7.259117603         1.606656909
    50.292671204        12.905097008         1.606656909
    47.032962799        18.551078796         1.606656909
    43.773254395        24.197057724         1.606656909
    40.513542175        29.843036652         1.606656909
    37.253833771        35.489017487         1.606656909
    33.994125366        41.134998322         1.606656909
    30.734415054        46.780979156         1.606656909
    27.474708557        52.426956177         1.606656909
    63.331501007         1.613137245         1.606656909
    60.071792603         7.259117603         1.606656909
    56.812084198        12.905097008         1.606656909
    53.552375793        18.551078796         1.606656909
    50.292667389        24.197057724         1.606656909
    47.032955170        29.843036652         1.606656909
    43.773246765        35.489017487         1.606656909
    40.513538361        41.134998322         1.606656909
    37.253829956        46.780979156         1.606656909
    33.994121552        52.426956177         1.606656909
     2.794037580         3.226274490         1.606656909
    -0.465671569         8.872254372         1.606656909
    -3.725380898        14.518235207         1.606656909
    -6.985089779        20.164215088         1.606656909
   -10.244798660        25.810194016         1.606656909
   -13.504508018        31.456174850         1.606656909
   -16.764217377        37.102157593         1.606656909
   -20.023925781        42.748134613         1.606656909
   -23.283636093        48.394115448         1.606656909
   -26.543344498        54.040092468         1.606656909
     9.313457489         3.226274490         1.606656909
     6.053748131         8.872254372         1.606656909
     2.794038773        14.518235207         1.606656909
    -0.465670317        20.164215088         1.606656909
    -3.725379229        25.810194016         1.606656909
    -6.985088348        31.456174850         1.606656909
   -10.244798660        37.102157593         1.606656909
   -13.504506111        42.748134613         1.606656909
   -16.764215469        48.394115448         1.606656909
   -20.023923874        54.040092468         1.606656909
    15.832879066         3.226274490         1.606656909
    12.573169708         8.872254372         1.606656909
     9.313460350        14.518235207         1.606656909
     6.053751469        20.164215088         1.606656909
     2.794042349        25.810194016         1.606656909
    -0.465666682        31.456174850         1.606656909
    -3.725376606        37.102157593         1.606656909
    -6.985084534        42.748134613         1.606656909
   -10.244794846        48.394115448         1.606656909
   -13.504502296        54.040092468         1.606656909
    22.352296829         3.226274490         1.606656909
    19.092588425         8.872254372         1.606656909
    15.832879066        14.518235207         1.606656909
    12.573169708        20.164215088         1.606656909
     9.313461304        25.810194016         1.606656909
     6.053751945        31.456174850         1.606656909
     2.794042110        37.102157593         1.606656909
    -0.465665907        42.748134613         1.606656909
    -3.725375891        48.394115448         1.606656909
    -6.985084057        54.040092468         1.606656909
    28.871715546         3.226274490         1.606656909
    25.612007141         8.872254372         1.606656909
    22.352296829        14.518235207         1.606656909
    19.092588425        20.164215088         1.606656909
    15.832880020        25.810194016         1.606656909
    12.573170662        31.456174850         1.606656909
     9.313460350        37.102157593         1.606656909
     6.053752899        42.748134613         1.606656909
     2.794042826        48.394115448         1.606656909
    -0.465665162        54.040092468         1.606656909
    35.391139984         3.226274490         1.606656909
    32.131427765         8.872254372         1.606656909
    28.871719360        14.518235207         1.606656909
    25.612010956        20.164215088         1.606656909
    22.352302551        25.810194016         1.606656909
    19.092594147        31.456174850         1.606656909
    15.832882881        37.102157593         1.606656909
    12.573175430        42.748134613         1.606656909
     9.313465118        48.394115448         1.606656909
     6.053757191        54.040092468         1.606656909
    41.910560608         3.226274490         1.606656909
    38.650848389         8.872254372         1.606656909
    35.391139984        14.518235207         1.606656909
    32.131431580        20.164215088         1.606656909
    28.871723175        25.810194016         1.606656909
    25.612014771        31.456174850         1.606656909
    22.352304459        37.102157593         1.606656909
    19.092596054        42.748134613         1.606656909
    15.832885742        48.394115448         1.606656909
    12.573178291        54.040092468         1.606656909
    48.429977417         3.226274490         1.606656909
    45.170265198         8.872254372         1.606656909
    41.910556793        14.518235207         1.606656909
    38.650848389        20.164215088         1.606656909
    35.391139984        25.810194016         1.606656909
    32.131431580        31.456174850         1.606656909
    28.871721268        37.102157593         1.606656909
    25.612012863        42.748134613         1.606656909
    22.352302551        48.394115448         1.606656909
    19.092594147        54.040092468         1.606656909
    54.949398041         3.226274490         1.606656909
    51.689685822         8.872254372         1.606656909
    48.429977417        14.518235207         1.606656909
    45.170269012        20.164215088         1.606656909
    41.910560608        25.810194016         1.606656909
    38.650852203        31.456174850         1.606656909
    35.391139984        37.102157593         1.606656909
    32.131431580        42.748134613         1.606656909
    28.871723175        48.394115448         1.606656909
    25.612014771        54.040092468         1.606656909
    61.468818665         3.226274490         1.606656909
    58.209106445         8.872254372         1.606656909
    54.949398041        14.518235207         1.606656909
    51.689689636        20.164215088         1.606656909
    48.429981232        25.810194016         1.606656909
    45.170272827        31.456174850         1.606656909
    41.910560608        37.102157593         1.606656909
    38.650852203        42.748134613         1.606656909
    35.391143799        48.394115448         1.606656909
    32.131435394        54.040092468         1.606656909
     0.931346536         4.839411736         1.606656909
    -2.328362703        10.485391617         1.606656909
    -5.588072300        16.131372452         1.606656909
    -8.847781181        21.777351379         1.606656909
   -12.107490540        27.423332214         1.606656909
   -15.367198944        33.069313049         1.606656909
   -18.626909256        38.715293884         1.606656909
   -21.886617661        44.361270905         1.606656909
   -25.146326065        50.007251740         1.606656909
   -28.406034470        55.653228760         1.606656909
     7.450767040         4.839411736         1.606656909
     4.191057682        10.485391617         1.606656909
     0.931348264        16.131372452         1.606656909
    -2.328360796        21.777351379         1.606656909
    -5.588069916        27.423332214         1.606656909
    -8.847778320        33.069313049         1.606656909
   -12.107488632        38.715293884         1.606656909
   -15.367197037        44.361270905         1.606656909
   -18.626907349        50.007251740         1.606656909
   -21.886613846        55.653228760         1.606656909
    13.970186234         4.839411736         1.606656909
    10.710477829        10.485391617         1.606656909
     7.450767994        16.131372452         1.606656909
     4.191059113        21.777351379         1.606656909
     0.931349993        27.423332214         1.606656909
    -2.328358889        33.069313049         1.606656909
    -5.588068962        38.715293884         1.606656909
    -8.847777367        44.361270905         1.606656909
   -12.107486725        50.007251740         1.606656909
   -15.367195129        55.653228760         1.606656909
    20.489606857         4.839411736         1.606656909
    17.229898453        10.485391617         1.606656909
    13.970188141        16.131372452         1.606656909
    10.710479736        21.777351379         1.606656909
     7.450770378        27.423332214         1.606656909
     4.191061497        33.069313049         1.606656909
     0.931351662        38.715293884         1.606656909
    -2.328356266        44.361270905         1.606656909
    -5.588066101        50.007251740         1.606656909
    -8.847774506        55.653228760         1.606656909
    27.009025574         4.839411736         1.606656909
    23.749317169        10.485391617         1.606656909
    20.489606857        16.131372452         1.606656909
    17.229898453        21.777351379         1.606656909
    13.970189095        27.423332214         1.606656909
    10.710480690        33.069313049         1.606656909
     7.450770378        38.715293884         1.606656909
     4.191062450        44.361270905         1.606656909
     0.931352437        50.007251740         1.606656909
    -2.328355551        55.653228760         1.606656909
    33.528446198         4.839411736         1.606656909
    30.268737793        10.485391617         1.606656909
    27.009027481        16.131372452         1.606656909
    23.749319077        21.777351379         1.606656909
    20.489610672        27.423332214         1.606656909
    17.229900360        33.069313049         1.606656909
    13.970191002        38.715293884         1.606656909
    10.710482597        44.361270905         1.606656909
     7.450773239        50.007251740         1.606656909
     4.191064835        55.653228760         1.606656909
    40.047866821         4.839411736         1.606656909
    36.788158417        10.485391617         1.606656909
    33.528450012        16.131372452         1.606656909
    30.268739700        21.777351379         1.606656909
    27.009031296        27.423332214         1.606656909
    23.749320984        33.069313049         1.606656909
    20.489612579        38.715293884         1.606656909
    17.229904175        44.361270905         1.606656909
    13.970193863        50.007251740         1.606656909
    10.710485458        55.653228760         1.606656909
    46.567283630         4.839411736         1.606656909
    43.307575226        10.485391617         1.606656909
    40.047866821        16.131372452         1.606656909
    36.788154602        21.777351379         1.606656909
    33.528446198        27.423332214         1.606656909
    30.268737793        33.069313049         1.606656909
    27.009029388        38.715293884         1.606656909
    23.749320984        44.361270905         1.606656909
    20.489610672        50.007251740         1.606656909
    17.229902267        55.653228760         1.606656909
    53.086704254         4.839411736         1.606656909
    49.826995850        10.485391617         1.606656909
    46.567287445        16.131372452         1.606656909
    43.307575226        21.777351379         1.606656909
    40.047866821        27.423332214         1.606656909
    36.788158417        33.069313049         1.606656909
    33.528450012        38.715293884         1.606656909
    30.268741608        44.361270905         1.606656909
    27.009031296        50.007251740         1.606656909
    23.749322891        55.653228760         1.606656909
    59.606121063         4.839411736         1.606656909
    56.346412659        10.485391617         1.606656909
    53.086704254        16.131372452         1.606656909
    49.826992035        21.777351379         1.606656909
    46.567283630        27.423332214         1.606656909
    43.307575226        33.069313049         1.606656909
    40.047866821        38.715293884         1.606656909
    36.788158417        44.361270905         1.606656909
    33.528446198        50.007251740         1.606656909
    30.268739700        55.653228760         1.606656909
     2.328364372         0.806568623         1.606656909
    -0.931344807         6.452548504         1.606656909
    -4.191053867        12.098528862         1.606656909
    -7.450763702        17.744508743         1.606656909
   -10.710472107        23.390489578         1.606656909
   -13.970182419        29.036470413         1.606656909
   -17.229892731        34.682453156         1.606656909
   -20.489601135        40.328430176         1.606656909
   -23.749309540        45.974411011         1.606656909
   -27.009017944        51.620388031         1.606656909
     8.847784996         0.806568623         1.606656909
     5.588075638         6.452548504         1.606656909
     2.328366280        12.098528862         1.606656909
    -0.931343138        17.744508743         1.606656909
    -4.191051960        23.390489578         1.606656909
    -7.450761795        29.036470413         1.606656909
   -10.710472107        34.682453156         1.606656909
   -13.970179558        40.328430176         1.606656909
   -17.229890823        45.974411011         1.606656909
   -20.489597321        51.620388031         1.606656909
    15.367204666         0.806568623         1.606656909