 C                                      
   1.00000000000000     
    11.2918513754140211    0.0000000000000000    0.0000000000000000
    -5.6459252108119102    9.7790293208977683    0.0000000000000000
     0.0000000000000000    0.0000000000000000    6.4267150753140356
   C 
    84
Direct
  0.0000000000000000  0.0000000000000000  0.2500000000000000
  0.0476190489999979  0.8095238209999991  0.2500000000000000
  0.9523809550000024  0.1904761939999986  0.2500000000000000
  0.9047619099999977  0.3809523879999972  0.2500000000000000
  0.8571428659999967  0.5714285970000006  0.2500000000000000
  0.8095238209999991  0.7619047760000015  0.2500000000000000
  0.7619047760000015  0.9523809550000024  0.2500000000000000
  0.2857142980000020  0.8571428659999967  0.2500000000000000
  0.2380952390000033  0.0476190489999979  0.2500000000000000
  0.1904761939999986  0.2380952390000033  0.2500000000000000
  0.1428571490000010  0.4285714330000019  0.2500000000000000
  0.0952380969999993  0.6190476419999982  0.2500000000000000
  0.5238095520000030  0.9047619099999977  0.2500000000000000
  0.4761904779999995  0.0952380969999993  0.2500000000000000
  0.4285714330000019  0.2857142980000020  0.2500000000000000
  0.3809523879999972  0.4761904779999995  0.2500000000000000
  0.3333333429999996  0.6666666870000029  0.2500000000000000
  0.7142857309999968  0.1428571490000010  0.2500000000000000
  0.6666666870000029  0.3333333429999996  0.2500000000000000
  0.6190476419999982  0.5238095520000030  0.2500000000000000
  0.5714285970000006  0.7142857309999968  0.2500000000000000
  0.0000000000000000  0.0000000000000000  0.7500000000000000
  0.0476190489999979  0.8095238209999991  0.7500000000000000
  0.9523809550000024  0.1904761939999986  0.7500000000000000
  0.9047619099999977  0.3809523879999972  0.7500000000000000
  0.8571428659999967  0.5714285970000006  0.7500000000000000
  0.8095238209999991  0.7619047760000015  0.7500000000000000
  0.7619047760000015  0.9523809550000024  0.7500000000000000
  0.2857142980000020  0.8571428659999967  0.7500000000000000
  0.2380952390000033  0.0476190489999979  0.7500000000000000
  0.1904761939999986  0.2380952390000033  0.7500000000000000
  0.1428571490000010  0.4285714330000019  0.7500000000000000
  0.0952380969999993  0.6190476419999982  0.7500000000000000
  0.5238095520000030  0.9047619099999977  0.7500000000000000
  0.4761904779999995  0.0952380969999993  0.7500000000000000
  0.4285714330000019  0.2857142980000020  0.7500000000000000
  0.3809523879999972  0.4761904779999995  0.7500000000000000
  0.3333333429999996  0.6666666870000029  0.7500000000000000
  0.7142857309999968  0.1428571490000010  0.7500000000000000
  0.6666666870000029  0.3333333429999996  0.7500000000000000
  0.6190476419999982  0.5238095520000030  0.7500000000000000
  0.5714285970000006  0.7142857309999968  0.7500000000000000
  0.0476190489999979  0.1428571490000010  0.2500000000000000
  0.0952380969999993  0.9523809550000024  0.2500000000000000
  0.0000000000000000  0.3333333429999996  0.2500000000000000
  0.9523809550000024  0.5238095520000030  0.2500000000000000
  0.9047619099999977  0.7142857309999968  0.2500000000000000
  0.8571428659999967  0.9047619099999977  0.2500000000000000
  0.8095238209999991  0.0952381040000034  0.2500000000000000
  0.3333333429999996  0.0000000000000000  0.2500000000000000
  0.2857142980000020  0.1904761939999986  0.2500000000000000
  0.2380952390000033  0.3809523879999972  0.2500000000000000
  0.1904761939999986  0.5714285970000006  0.2500000000000000
  0.1428571490000010  0.7619047760000015  0.2500000000000000
  0.5714285970000006  0.0476190520000017  0.2500000000000000
  0.5238095520000030  0.2380952390000033  0.2500000000000000
  0.4761904779999995  0.4285714330000019  0.2500000000000000
  0.4285714330000019  0.6190476419999982  0.2500000000000000
  0.3809523879999972  0.8095238209999991  0.2500000000000000
  0.7619047760000015  0.2857142980000020  0.2500000000000000
  0.7142857309999968  0.4761904779999995  0.2500000000000000
  0.6666666870000029  0.6666666870000029  0.2500000000000000
  0.6190476419999982  0.8571428659999967  0.2500000000000000
  0.1428571490000010  0.0952380969999993  0.7500000000000000
  0.1904761939999986  0.9047619099999977  0.7500000000000000
  0.0952381040000034  0.2857142980000020  0.7500000000000000
  0.0476190520000017  0.4761904779999995  0.7500000000000000
  0.0000000000000000  0.6666666870000029  0.7500000000000000
  0.9523809550000024  0.8571428659999967  0.7500000000000000
  0.9047619099999977  0.0476190489999979  0.7500000000000000
  0.4285714330000019  0.9523809550000024  0.7500000000000000
  0.3809523879999972  0.1428571490000010  0.7500000000000000
  0.3333333429999996  0.3333333429999996  0.7500000000000000
  0.2857142980000020  0.5238095520000030  0.7500000000000000
  0.2380952390000033  0.7142857309999968  0.7500000000000000
  0.6666666870000029  0.0000000000000000  0.7500000000000000
  0.6190476419999982  0.1904761939999986  0.7500000000000000
  0.5714285970000006  0.3809523879999972  0.7500000000000000
  0.5238095520000030  0.5714285970000006  0.7500000000000000
  0.4761904779999995  0.7619047760000015  0.7500000000000000
  0.8571428659999967  0.2380952390000033  0.7500000000000000
  0.8095238209999991  0.4285714330000019  0.7500000000000000
  0.7619047760000015  0.6190476419999982  0.7500000000000000
  0.7142857309999968  0.8095238209999991  0.7500000000000000
 
  0.00000000E+00  0.00000000E+00  0.00000000E+00
  0.00000000E+00  0.00000000E+00  0.00000000E+00
  0.00000000E+00  0.00000000E+00  0.00000000E+00
  0.00000000E+00  0.00000000E+00  0.00000000E+00
  0.00000000E+00  0.00000000E+00  0.00000000E+00
  0.00000000E+00  0.00000000E+00  0.00000000E+00
  0.00000000E+00  0.00000000E+00  0.00000000E+00
  0.00000000E+00  0.00000000E+00  0.00000000E+00
  0.00000000E+00  0.00000000E+00  0.00000000E+00
  0.00000000E+00  0.00000000E+00  0.00000000E+00
  0.00000000E+00  0.00000000E+00  0.00000000E+00
  0.00000000E+00  0.00000000E+00  0.00000000E+00
  0.00000000E+00  0.00000000E+00  0.00000000E+00
  0.00000000E+00  0.00000000E+00  0.00000000E+00
  0.00000000E+00  0.00000000E+00  0.00000000E+00
  0.00000000E+00  0.00000000E+00  0.00000000E+00
  0.00000000E+00  0.00000000E+00  0.00000000E+00
  0.00000000E+00  0.00000000E+00  0.00000000E+00
  0.00000000E+00  0.00000000E+00  0.00000000E+00
  0.00000000E+00  0.00000000E+00  0.00000000E+00
  0.00000000E+00  0.00000000E+00  0.00000000E+00
  0.00000000E+00  0.00000000E+00  0.00000000E+00
  0.00000000E+00  0.00000000E+00  0.00000000E+00
  0.00000000E+00  0.00000000E+00  0.00000000E+00
  0.00000000E+00  0.00000000E+00  0.00000000E+00
  0.00000000E+00  0.00000000E+00  0.00000000E+00
  0.00000000E+00  0.00000000E+00  0.00000000E+00
  0.00000000E+00  0.00000000E+00  0.00000000E+00
  0.00000000E+00  0.00000000E+00  0.00000000E+00
  0.00000000E+00  0.00000000E+00  0.00000000E+00
  0.00000000E+00  0.00000000E+00  0.00000000E+00
  0.00000000E+00  0.00000000E+00  0.00000000E+00
  0.00000000E+00  0.00000000E+00  0.00000000E+00
  0.00000000E+00  0.00000000E+00  0.00000000E+00
  0.00000000E+00  0.00000000E+00  0.00000000E+00
  0.00000000E+00  0.00000000E+00  0.00000000E+00
  0.00000000E+00  0.00000000E+00  0.00000000E+00
  0.00000000E+00  0.00000000E+00  0.00000000E+00
  0.00000000E+00  0.00000000E+00  0.00000000E+00
  0.00000000E+00  0.00000000E+00  0.00000000E+00
  0.00000000E+00  0.00000000E+00  0.00000000E+00
  0.00000000E+00  0.00000000E+00  0.00000000E+00
  0.00000000E+00  0.00000000E+00  0.00000000E+00
  0.00000000E+00  0.00000000E+00  0.00000000E+00
  0.00000000E+00  0.00000000E+00  0.00000000E+00
  0.00000000E+00  0.00000000E+00  0.00000000E+00
  0.00000000E+00  0.00000000E+00  0.00000000E+00
  0.00000000E+00  0.00000000E+00  0.00000000E+00
  0.00000000E+00  0.00000000E+00  0.00000000E+00
  0.00000000E+00  0.00000000E+00  0.00000000E+00
  0.00000000E+00  0.00000000E+00  0.00000000E+00
  0.00000000E+00  0.00000000E+00  0.00000000E+00
  0.00000000E+00  0.00000000E+00  0.00000000E+00
  0.00000000E+00  0.00000000E+00  0.00000000E+00
  0.00000000E+00  0.00000000E+00  0.00000000E+00
  0.00000000E+00  0.00000000E+00  0.00000000E+00
  0.00000000E+00  0.00000000E+00  0.00000000E+00
  0.00000000E+00  0.00000000E+00  0.00000000E+00
  0.00000000E+00  0.00000000E+00  0.00000000E+00
  0.00000000E+00  0.00000000E+00  0.00000000E+00
  0.00000000E+00  0.00000000E+00  0.00000000E+00
  0.00000000E+00  0.00000000E+00  0.00000000E+00
  0.00000000E+00  0.00000000E+00  0.00000000E+00
  0.00000000E+00  0.00000000E+00  0.00000000E+00
  0.00000000E+00  0.00000000E+00  0.00000000E+00
  0.00000000E+00  0.00000000E+00  0.00000000E+00
  0.00000000E+00  0.00000000E+00  0.00000000E+00
  0.00000000E+00  0.00000000E+00  0.00000000E+00
  0.00000000E+00  0.00000000E+00  0.00000000E+00
  0.00000000E+00  0.00000000E+00  0.00000000E+00
  0.00000000E+00  0.00000000E+00  0.00000000E+00
  0.00000000E+00  0.00000000E+00  0.00000000E+00
  0.00000000E+00  0.00000000E+00  0.00000000E+00
  0.00000000E+00  0.00000000E+00  0.00000000E+00
  0.00000000E+00  0.00000000E+00  0.00000000E+00
  0.00000000E+00  0.00000000E+00  0.00000000E+00
  0.00000000E+00  0.00000000E+00  0.00000000E+00
  0.00000000E+00  0.00000000E+00  0.00000000E+00
  0.00000000E+00  0.00000000E+00  0.00000000E+00
  0.00000000E+00  0.00000000E+00  0.00000000E+00
  0.00000000E+00  0.00000000E+00  0.00000000E+00
  0.00000000E+00  0.00000000E+00  0.00000000E+00
  0.00000000E+00  0.00000000E+00  0.00000000E+00
  0.00000000E+00  0.00000000E+00  0.00000000E+00
