 C                                      
1.0
      112.9185104370         0.0000000000         0.0000000000
      -56.4592514038        97.7902919887         0.0000000000
        0.0000000000         0.0000000000         6.4267148972
    C
 8400
Cartesian
     0.000000000         0.000000000         1.606678724
    -5.645925225         9.779029345         1.606678724
   -11.291850449        19.558058689         1.606678724
   -16.937776094        29.337088762         1.606678724
   -22.583700898        39.116117378         1.606678724
   -28.229625702        48.895145994         1.606678724
   -33.875552188        58.674177525         1.606678724
   -39.521475310        68.453203226         1.606678724
   -45.167401796        78.232234757         1.606678724
   -50.813324917        88.011260458         1.606678724
    11.291851212         0.000000000         1.606678724
     5.645925987         9.779029345         1.606678724
     0.000000763        19.558058689         1.606678724
    -5.645924882        29.337088762         1.606678724
   -11.291849686        39.116117378         1.606678724
   -16.937774490        48.895145994         1.606678724
   -22.583700976        58.674177525         1.606678724
   -28.229624098        68.453203226         1.606678724
   -33.875550584        78.232234757         1.606678724
   -39.521473705        88.011260458         1.606678724
    22.583702424         0.000000000         1.606678724
    16.937777199         9.779029345         1.606678724
    11.291851975        19.558058689         1.606678724
     5.645926330        29.337088762         1.606678724
     0.000001526        39.116117378         1.606678724
    -5.645923278        48.895145994         1.606678724
   -11.291849764        58.674177525         1.606678724
   -16.937772886        68.453203226         1.606678724
   -22.583699372        78.232234757         1.606678724
   -28.229622493        88.011260458         1.606678724
    33.875554477         0.000000000         1.606678724
    28.229629253         9.779029345         1.606678724
    22.583704028        19.558058689         1.606678724
    16.937778383        29.337088762         1.606678724
    11.291853579        39.116117378         1.606678724
     5.645928775        48.895145994         1.606678724
     0.000002289        58.674177525         1.606678724
    -5.645920832        68.453203226         1.606678724
   -11.291847319        78.232234757         1.606678724
   -16.937770440        88.011260458         1.606678724
    45.167404848         0.000000000         1.606678724
    39.521479623         9.779029345         1.606678724
    33.875554399        19.558058689         1.606678724
    28.229628754        29.337088762         1.606678724
    22.583703950        39.116117378         1.606678724
    16.937779146        48.895145994         1.606678724
    11.291852659        58.674177525         1.606678724
     5.645929538        68.453203226         1.606678724
     0.000003052        78.232234757         1.606678724
    -5.645920069        88.011260458         1.606678724
    56.459255219         0.000000000         1.606678724
    50.813329994         9.779029345         1.606678724
    45.167404769        19.558058689         1.606678724
    39.521479124        29.337088762         1.606678724
    33.875554320        39.116117378         1.606678724
    28.229629517        48.895145994         1.606678724
    22.583703030        58.674177525         1.606678724
    16.937779909        68.453203226         1.606678724
    11.291853422        78.232234757         1.606678724
     5.645930301        88.011260458         1.606678724
    67.751108954         0.000000000         1.606678724
    62.105183730         9.779029345         1.606678724
    56.459258505        19.558058689         1.606678724
    50.813332860        29.337088762         1.606678724
    45.167408056        39.116117378         1.606678724
    39.521483252        48.895145994         1.606678724
    33.875556766        58.674177525         1.606678724
    28.229633645        68.453203226         1.606678724
    22.583707158        78.232234757         1.606678724
    16.937784037        88.011260458         1.606678724
    79.042955960         0.000000000         1.606678724
    73.397030735         9.779029345         1.606678724
    67.751105511        19.558058689         1.606678724
    62.105179866        29.337088762         1.606678724
    56.459255062        39.116117378         1.606678724
    50.813330258        48.895145994         1.606678724
    45.167403771        58.674177525         1.606678724
    39.521480650        68.453203226         1.606678724
    33.875554164        78.232234757         1.606678724
    28.229631042        88.011260458         1.606678724
    90.334809696         0.000000000         1.606678724
    84.688884471         9.779029345         1.606678724
    79.042959247        19.558058689         1.606678724
    73.397033602        29.337088762         1.606678724
    67.751108798        39.116117378         1.606678724
    62.105183994        48.895145994         1.606678724
    56.459257507        58.674177525         1.606678724
    50.813334386        68.453203226         1.606678724
    45.167407900        78.232234757         1.606678724
    39.521484778        88.011260458         1.606678724
   101.626656701         0.000000000         1.606678724
    95.980731477         9.779029345         1.606678724
    90.334806252        19.558058689         1.606678724
    84.688880607        29.337088762         1.606678724
    79.042955803        39.116117378         1.606678724
    73.397030999        48.895145994         1.606678724
    67.751104513        58.674177525         1.606678724
    62.105181392        68.453203226         1.606678724
    56.459254905        78.232234757         1.606678724
    50.813331784        88.011260458         1.606678724
    -4.032803763         7.916357227         1.606678724
    -9.678728988        17.695386572         1.606678724
   -15.324654633        27.474416645         1.606678724
   -20.970579437        37.253445261         1.606678724
   -26.616504240        47.032473877         1.606678724
   -32.262430727        56.811505407         1.606678724
   -37.908353848        66.590531109         1.606678724
   -43.554280335        76.369562639         1.606678724
   -49.200203456        86.148588341         1.606678724
   -54.846129942        95.927619871         1.606678724
     7.259047396         7.916357227         1.606678724
     1.613122172        17.695386572         1.606678724
    -4.032803473        27.474416645         1.606678724
    -9.678728277        37.253445261         1.606678724
   -15.324653081        47.032473877         1.606678724
   -20.970579568        56.811505407         1.606678724
   -26.616502689        66.590531109         1.606678724
   -32.262429175        76.369562639         1.606678724
   -37.908352297        86.148588341         1.606678724
   -43.554278783        95.927619871         1.606678724
    18.550898608         7.916357227         1.606678724
    12.904973384        17.695386572         1.606678724
     7.259047739        27.474416645         1.606678724
     1.613122935        37.253445261         1.606678724
    -4.032801869        47.032473877         1.606678724
    -9.678728356        56.811505407         1.606678724
   -15.324651477        66.590531109         1.606678724
   -20.970577963        76.369562639         1.606678724
   -26.616501085        86.148588341         1.606678724
   -32.262427571        95.927619871         1.606678724
    29.842750662         7.916357227         1.606678724
    24.196825437        17.695386572         1.606678724
    18.550899792        27.474416645         1.606678724
    12.904974988        37.253445261         1.606678724
     7.259050184        47.032473877         1.606678724
     1.613123698        56.811505407         1.606678724
    -4.032799424        66.590531109         1.606678724
    -9.678725910        76.369562639         1.606678724
   -15.324649031        86.148588341         1.606678724
   -20.970575518        95.927619871         1.606678724
    41.134601032         7.916357227         1.606678724
    35.488675808        17.695386572         1.606678724
    29.842750163        27.474416645         1.606678724
    24.196825359        37.253445261         1.606678724
    18.550900555        47.032473877         1.606678724
    12.904974068        56.811505407         1.606678724
     7.259050947        66.590531109         1.606678724
     1.613124461        76.369562639         1.606678724
    -4.032798661        86.148588341         1.606678724
    -9.678725147        95.927619871         1.606678724
    52.426454768         7.916357227         1.606678724
    46.780529544        17.695386572         1.606678724
    41.134603898        27.474416645         1.606678724
    35.488679095        37.253445261         1.606678724
    29.842754291        47.032473877         1.606678724
    24.196827804        56.811505407         1.606678724
    18.550904683        66.590531109         1.606678724
    12.904978197        76.369562639         1.606678724
     7.259055075        86.148588341         1.606678724
     1.613128589        95.927619871         1.606678724
    63.718301774         7.916357227         1.606678724
    58.072376549        17.695386572         1.606678724
    52.426450904        27.474416645         1.606678724
    46.780526100        37.253445261         1.606678724
    41.134601296        47.032473877         1.606678724
    35.488674810        56.811505407         1.606678724
    29.842751688        66.590531109         1.606678724
    24.196825202        76.369562639         1.606678724
    18.550902081        86.148588341         1.606678724
    12.904975594        95.927619871         1.606678724
    75.010155509         7.916357227         1.606678724
    69.364230285        17.695386572         1.606678724
    63.718304640        27.474416645         1.606678724
    58.072379836        37.253445261         1.606678724
    52.426455032        47.032473877         1.606678724
    46.780528546        56.811505407         1.606678724
    41.134605424        66.590531109         1.606678724
    35.488678938        76.369562639         1.606678724
    29.842755817        86.148588341         1.606678724
    24.196829330        95.927619871         1.606678724
    86.302002515         7.916357227         1.606678724
    80.656077290        17.695386572         1.606678724
    75.010151645        27.474416645         1.606678724
    69.364226841        37.253445261         1.606678724
    63.718302037        47.032473877         1.606678724
    58.072375551        56.811505407         1.606678724
    52.426452430        66.590531109         1.606678724
    46.780525943        76.369562639         1.606678724
    41.134602822        86.148588341         1.606678724
    35.488676336        95.927619871         1.606678724
    97.593856251         7.916357227         1.606678724
    91.947931026        17.695386572         1.606678724
    86.302005381        27.474416645         1.606678724
    80.656080577        37.253445261         1.606678724
    75.010155773        47.032473877         1.606678724
    69.364229287        56.811505407         1.606678724
    63.718306166        66.590531109         1.606678724
    58.072379679        76.369562639         1.606678724
    52.426456558        86.148588341         1.606678724
    46.780530071        95.927619871         1.606678724
     9.678729698         1.862672299         1.606678724
     4.032804579        11.641701462         1.606678724
    -1.613120646        21.420730807         1.606678724
    -7.259046291        31.199760880         1.606678724
   -12.904971095        40.978789496         1.606678724
   -18.550895899        50.757818112         1.606678724
   -24.196822385        60.536849642         1.606678724
   -29.842745507        70.315875344         1.606678724
   -35.488671993        80.094906874         1.606678724
   -41.134595114        89.873932576         1.606678724
    20.970580910         1.862672299         1.606678724
    15.324655791        11.641701462         1.606678724
     9.678730566        21.420730807         1.606678724
     4.032804921        31.199760880         1.606678724
    -1.613119883        40.978789496         1.606678724
    -7.259044687        50.757818112         1.606678724
   -12.904971173        60.536849642         1.606678724
   -18.550894295        70.315875344         1.606678724
   -24.196820781        80.094906874         1.606678724
   -29.842743902        89.873932576         1.606678724
    32.262432963         1.862672299         1.606678724
    26.616507844        11.641701462         1.606678724
    20.970582619        21.420730807         1.606678724
    15.324656974        31.199760880         1.606678724
     9.678732170        40.978789496         1.606678724
     4.032807366        50.757818112         1.606678724
    -1.613119120        60.536849642         1.606678724
    -7.259042241        70.315875344         1.606678724
   -12.904968728        80.094906874         1.606678724
   -18.550891849        89.873932576         1.606678724
    43.554283334         1.862672299         1.606678724
    37.908358214        11.641701462         1.606678724
    32.262432990        21.420730807         1.606678724
    26.616507345        31.199760880         1.606678724
    20.970582541        40.978789496         1.606678724
    15.324657737        50.757818112         1.606678724
     9.678731251        60.536849642         1.606678724
     4.032808129        70.315875344         1.606678724
    -1.613118357        80.094906874         1.606678724
    -7.259041478        89.873932576         1.606678724
    54.846133704         1.862672299         1.606678724
    49.200208585        11.641701462         1.606678724
    43.554283361        21.420730807         1.606678724
    37.908357715        31.199760880         1.606678724
    32.262432912        40.978789496         1.606678724
    26.616508108        50.757818112         1.606678724
    20.970581621        60.536849642         1.606678724
    15.324658500        70.315875344         1.606678724
     9.678732014        80.094906874         1.606678724
     4.032808892        89.873932576         1.606678724
    66.137984075         1.862672299         1.606678724
    60.492058956        11.641701462         1.606678724
    54.846133731        21.420730807         1.606678724
    49.200208086        31.199760880         1.606678724
    43.554283282        40.978789496         1.606678724
    37.908358478        50.757818112         1.606678724
    32.262431992        60.536849642         1.606678724
    26.616508871        70.315875344         1.606678724
    20.970582384        80.094906874         1.606678724
    15.324659263        89.873932576         1.606678724
    77.429837811         1.862672299         1.606678724
    71.783912692        11.641701462         1.606678724
    66.137987467        21.420730807         1.606678724
    60.492061822        31.199760880         1.606678724
    54.846137018        40.978789496         1.606678724
    49.200212214        50.757818112         1.606678724
    43.554285728        60.536849642         1.606678724
    37.908362607        70.315875344         1.606678724
    32.262436120        80.094906874         1.606678724
    26.616512999        89.873932576         1.606678724
    88.721684816         1.862672299         1.606678724
    83.075759697        11.641701462         1.606678724
    77.429834473        21.420730807         1.606678724
    71.783908827        31.199760880         1.606678724
    66.137984024        40.978789496         1.606678724
    60.492059220        50.757818112         1.606678724
    54.846132733        60.536849642         1.606678724
    49.200209612        70.315875344         1.606678724
    43.554283126        80.094906874         1.606678724
    37.908360004        89.873932576         1.606678724
   100.013538552         1.862672299         1.606678724
    94.367613433        11.641701462         1.606678724
    88.721688208        21.420730807         1.606678724
    83.075762563        31.199760880         1.606678724
    77.429837759        40.978789496         1.606678724
    71.783912956        50.757818112         1.606678724
    66.137986469        60.536849642         1.606678724
    60.492063348        70.315875344         1.606678724
    54.846136861        80.094906874         1.606678724
    49.200213740        89.873932576         1.606678724
   111.305392288         1.862672299         1.606678724
   105.659467169        11.641701462         1.606678724
   100.013541944        21.420730807         1.606678724
    94.367616299        31.199760880         1.606678724
    88.721691495        40.978789496         1.606678724
    83.075766691        50.757818112         1.606678724
    77.429840205        60.536849642         1.606678724
    71.783917084        70.315875344         1.606678724
    66.137990597        80.094906874         1.606678724
    60.492067476        89.873932576         1.606678724
     8.065608184         3.725344599         1.606678724
     2.419682749        13.504374308         1.606678724
    -3.226242055        23.283402924         1.606678724
    -8.872167700        33.062432997         1.606678724
   -14.518092504        42.841461613         1.606678724
   -20.164017308        52.620490229         1.606678724
   -25.809943794        62.399521759         1.606678724
   -31.455866915        72.178547461         1.606678724
   -37.101793402        81.957578991         1.606678724
   -42.747716523        91.736604693         1.606678724
    19.357459396         3.725344599         1.606678724
    13.711533961        13.504374308         1.606678724
     8.065609157        23.283402924         1.606678724
     2.419683512        33.062432997         1.606678724
    -3.226241292        42.841461613         1.606678724
    -8.872166096        52.620490229         1.606678724
   -14.518092582        62.399521759         1.606678724
   -20.164015703        72.178547461         1.606678724
   -25.809942190        81.957578991         1.606678724
   -31.455865311        91.736604693         1.606678724
    30.649311449         3.725344599         1.606678724
    25.003386014        13.504374308         1.606678724
    19.357461210        23.283402924         1.606678724
    13.711535565        33.062432997         1.606678724
     8.065610761        42.841461613         1.606678724
     2.419685958        52.620490229         1.606678724
    -3.226240529        62.399521759         1.606678724
    -8.872163650        72.178547461         1.606678724
   -14.518090137        81.957578991         1.606678724
   -20.164013258        91.736604693         1.606678724
    41.941161820         3.725344599         1.606678724
    36.295236385        13.504374308         1.606678724
    30.649311581        23.283402924         1.606678724
    25.003385936        33.062432997         1.606678724
    19.357461132        42.841461613         1.606678724
    13.711536328        52.620490229         1.606678724
     8.065609842        62.399521759         1.606678724
     2.419686721        72.178547461         1.606678724
    -3.226239766        81.957578991         1.606678724
    -8.872162887        91.736604693         1.606678724
    53.233012190         3.725344599         1.606678724
    47.587086756        13.504374308         1.606678724
    41.941161952        23.283402924         1.606678724
    36.295236307        33.062432997         1.606678724
    30.649311503        42.841461613         1.606678724
    25.003386699        52.620490229         1.606678724
    19.357460212        62.399521759         1.606678724
    13.711537091        72.178547461         1.606678724
     8.065610605        81.957578991         1.606678724
     2.419687483        91.736604693         1.606678724
    64.524865926         3.725344599         1.606678724
    58.878940492        13.504374308         1.606678724
    53.233015688        23.283402924         1.606678724
    47.587090042        33.062432997         1.606678724
    41.941165239        42.841461613         1.606678724
    36.295240435        52.620490229         1.606678724
    30.649313948        62.399521759         1.606678724
    25.003390827        72.178547461         1.606678724
    19.357464341        81.957578991         1.606678724
    13.711541219        91.736604693         1.606678724
    75.816712932         3.725344599         1.606678724
    70.170787497        13.504374308         1.606678724
    64.524862693        23.283402924         1.606678724
    58.878937048        33.062432997         1.606678724
    53.233012244        42.841461613         1.606678724
    47.587087440        52.620490229         1.606678724
    41.941160954        62.399521759         1.606678724
    36.295237832        72.178547461         1.606678724
    30.649311346        81.957578991         1.606678724
    25.003388225        91.736604693         1.606678724
    87.108566668         3.725344599         1.606678724
    81.462641233        13.504374308         1.606678724
    75.816716429        23.283402924         1.606678724
    70.170790784        33.062432997         1.606678724
    64.524865980        42.841461613         1.606678724
    58.878941176        52.620490229         1.606678724
    53.233014690        62.399521759         1.606678724
    47.587091568        72.178547461         1.606678724
    41.941165082        81.957578991         1.606678724
    36.295241961        91.736604693         1.606678724
    98.400413673         3.725344599         1.606678724
    92.754488238        13.504374308         1.606678724
    87.108563434        23.283402924         1.606678724
    81.462637789        33.062432997         1.606678724
    75.816712985        42.841461613         1.606678724
    70.170788181        52.620490229         1.606678724
    64.524861695        62.399521759         1.606678724
    58.878938574        72.178547461         1.606678724
    53.233012087        81.957578991         1.606678724
    47.587088966        91.736604693         1.606678724
   109.692267409         3.725344599         1.606678724
   104.046341974        13.504374308         1.606678724
    98.400417170        23.283402924         1.606678724
    92.754491525        33.062432997         1.606678724
    87.108566721        42.841461613         1.606678724
    81.462641917        52.620490229         1.606678724
    75.816715431        62.399521759         1.606678724
    70.170792310        72.178547461         1.606678724
    64.524865823        81.957578991         1.606678724
    58.878942702        91.736604693         1.606678724
     6.452486565         5.588017081         1.606678724
     0.806561340        15.367046425         1.606678724
    -4.839364305        25.146076498         1.606678724
   -10.485289109        34.925105114         1.606678724
   -16.131213913        44.704133730         1.606678724
   -21.777138717        54.483162346         1.606678724
   -27.423065203        64.262193877         1.606678724
   -33.068988324        74.041219578         1.606678724
   -38.714914811        83.820251109         1.606678724
   -44.360841297        93.599282639         1.606678724
    17.744337777         5.588017081         1.606678724
    12.098412552        15.367046425         1.606678724
     6.452486907        25.146076498         1.606678724
     0.806562103        34.925105114         1.606678724
    -4.839362701        44.704133730         1.606678724
   -10.485287505        54.483162346         1.606678724
   -16.131213991        64.262193877         1.606678724
   -21.777137112        74.041219578         1.606678724
   -27.423063599        83.820251109         1.606678724
   -33.068990085        93.599282639         1.606678724
    29.036189830         5.588017081         1.606678724
    23.390264605        15.367046425         1.606678724
    17.744338960        25.146076498         1.606678724
    12.098414156        34.925105114         1.606678724
     6.452489353        44.704133730         1.606678724
     0.806564549        54.483162346         1.606678724
    -4.839361938        64.262193877         1.606678724
   -10.485285059        74.041219578         1.606678724
   -16.131211545        83.820251109         1.606678724
   -21.777138032        93.599282639         1.606678724
    40.328040201         5.588017081         1.606678724
    34.682114976        15.367046425         1.606678724
    29.036189331        25.146076498         1.606678724
    23.390264527        34.925105114         1.606678724
    17.744339723        44.704133730         1.606678724
    12.098414919        54.483162346         1.606678724
     6.452488433        64.262193877         1.606678724
     0.806565312        74.041219578         1.606678724
    -4.839361175        83.820251109         1.606678724
   -10.485287661        93.599282639         1.606678724
    51.619890571         5.588017081         1.606678724
    45.973965347        15.367046425         1.606678724
    40.328039702        25.146076498         1.606678724
    34.682114898        34.925105114         1.606678724
    29.036190094        44.704133730         1.606678724
    23.390265290        54.483162346         1.606678724
    17.744338804        64.262193877         1.606678724
    12.098415682        74.041219578         1.606678724
     6.452489196        83.820251109         1.606678724
     0.806562709        93.599282639         1.606678724
    62.911740942         5.588017081         1.606678724
    57.265815717        15.367046425         1.606678724
    51.619890072        25.146076498         1.606678724
    45.973965268        34.925105114         1.606678724
    40.328040465        44.704133730         1.606678724
    34.682115661        54.483162346         1.606678724
    29.036189174        64.262193877         1.606678724
    23.390266053        74.041219578         1.606678724
    17.744339566        83.820251109         1.606678724
    12.098413080        93.599282639         1.606678724
    74.203594678         5.588017081         1.606678724
    68.557669453        15.367046425         1.606678724
    62.911743808        25.146076498         1.606678724
    57.265819004        34.925105114         1.606678724
    51.619894200        44.704133730         1.606678724
    45.973969397        54.483162346         1.606678724
    40.328042910        64.262193877         1.606678724
    34.682119789        74.041219578         1.606678724
    29.036193302        83.820251109         1.606678724
    23.390266816        93.599282639         1.606678724
    85.495441683         5.588017081         1.606678724
    79.849516459        15.367046425         1.606678724
    74.203590814        25.146076498         1.606678724
    68.557666010        34.925105114         1.606678724
    62.911741206        44.704133730         1.606678724
    57.265816402        54.483162346         1.606678724
    51.619889916        64.262193877         1.606678724
    45.973966794        74.041219578         1.606678724
    40.328040308        83.820251109         1.606678724
    34.682113821        93.599282639         1.606678724
    96.787295419         5.588017081         1.606678724
    91.141370195        15.367046425         1.606678724
    85.495444549        25.146076498         1.606678724
    79.849519746        34.925105114         1.606678724
    74.203594942        44.704133730         1.606678724
    68.557670138        54.483162346         1.606678724
    62.911743651        64.262193877         1.606678724
    57.265820530        74.041219578         1.606678724
    51.619894044        83.820251109         1.606678724
    45.973967557        93.599282639         1.606678724
   108.079149155         5.588017081         1.606678724
   102.433223930        15.367046425         1.606678724
    96.787298285        25.146076498         1.606678724
    91.141373481        34.925105114         1.606678724
    85.495448678        44.704133730         1.606678724
    79.849523874        54.483162346         1.606678724
    74.203597387        64.262193877         1.606678724
    68.557674266        74.041219578         1.606678724
    62.911747780        83.820251109         1.606678724
    57.265821293        93.599282639         1.606678724
     4.839365156         7.450689198         1.606678724
    -0.806560069        17.229718543         1.606678724
    -6.452485714        27.008748616         1.606678724
   -12.098410518        36.787777232         1.606678724
   -17.744335322        46.566805848         1.606678724
   -23.390260125        56.345834464         1.606678724
   -29.036186612        66.124865994         1.606678724
   -34.682109733        75.903891696         1.606678724
   -40.328036220        85.682923226         1.606678724
   -45.973962706        95.461954756         1.606678724
    16.131216368         7.450689198         1.606678724
    10.485291143        17.229718543         1.606678724
     4.839365498        27.008748616         1.606678724
    -0.806559306        36.787777232         1.606678724
    -6.452484110        46.566805848         1.606678724
   -12.098408913        56.345834464         1.606678724
   -17.744335400        66.124865994         1.606678724
   -23.390258521        75.903891696         1.606678724
   -29.036185008        85.682923226         1.606678724
   -34.682111494        95.461954756         1.606678724
    27.423068421         7.450689198         1.606678724