graphite                                
  0.989837961806678     
     1.2452288678920715   -2.1567996643926803    0.0000000000000000
     1.2452288678920715    2.1567996643926803    0.0000000000000000
     0.0000000000000000   -0.0000000000000000    6.5256066703463205
   C 
     4
Direct
 -0.0000000000000000  0.0000000000000000  0.2500000000000000
  0.0000000000000000 -0.0000000000000000  0.7500000000000000
  0.3333333300000021  0.6666666699999979  0.2500000000000000
  0.6666666699999979  0.3333333300000021  0.7500000000000000
 
  0.00000000E+00  0.00000000E+00  0.00000000E+00
  0.00000000E+00  0.00000000E+00  0.00000000E+00
  0.00000000E+00  0.00000000E+00  0.00000000E+00
  0.00000000E+00  0.00000000E+00  0.00000000E+00
